Fe
2.00 
2.83000000 0.00000000 0.00000000 
0.00000000 2.83000000 0.00000000 
0.00000000 0.00000000 2.83000000 
Cr Fe 
6 10 
Direct
0.0000000000000000 0.5000000000000000 0.0000000000000000 
0.0000000000000000 0.5000000000000000 0.5000000000000000 
0.2500000000000000 0.7500000000000000 0.7500000000000000 
0.5000000000000000 0.0000000000000000 0.0000000000000000 
0.5000000000000000 0.0000000000000000 0.5000000000000000 
0.7500000000000000 0.7500000000000000 0.7500000000000000 
0.0000000000000000 0.0000000000000000 0.0000000000000000 
0.2500000000000000 0.2500000000000000 0.2500000000000000 
0.0000000000000000 0.0000000000000000 0.5000000000000000 
0.2500000000000000 0.2500000000000000 0.7500000000000000 
0.2500000000000000 0.7500000000000000 0.2500000000000000 
0.7500000000000000 0.2500000000000000 0.2500000000000000 
0.7500000000000000 0.2500000000000000 0.7500000000000000 
0.5000000000000000 0.5000000000000000 0.0000000000000000 
0.7500000000000000 0.7500000000000000 0.2500000000000000 
0.5000000000000000 0.5000000000000000 0.5000000000000000 
