  PAW_PBE Cr 06Sep2000                   
   6.00000000000000     
 parameters from PSCTR are:
   VRHFIN =Cr : d5 s1
   LEXCH  = PE
   EATOM  =   276.8859 eV,   20.3505 Ry

   TITEL  = PAW_PBE Cr 06Sep2000
   LULTRA =        F    use ultrasoft PP ?
   IUNSCR =        1    unscreen: 0-lin 1-nonlin 2-no
   RPACOR =    2.080    partial core radius
   POMASS =   51.996; ZVAL   =    6.000    mass and valenz
   RCORE  =    2.500    outmost cutoff radius
   RWIGS  =    2.500; RWIGS  =    1.323    wigner-seitz radius (au A)
   ENMAX  =  227.080; ENMIN  =  170.310 eV
   RCLOC  =    1.721    cutoff for local pot
   LCOR   =        T    correct aug charges
   LPAW   =        T    paw PP
   EAUG   =  402.108
   DEXC   =    0.000
   RMAX   =    2.552    core radius for proj-oper
   RAUG   =    1.300    factor for augmentation sphere
   RDEP   =    2.609    radius for radial grids
   RDEPT  =    2.065    core radius for aug-charge
 
   Atomic configuration
    9 entries
     n  l   j            E        occ.
     1  0  0.50     -5880.4963   2.0000
     2  0  0.50      -667.0865   2.0000
     2  1  1.50      -560.6250   6.0000
     3  0  0.50       -73.9860   2.0000
     3  1  1.50       -45.4378   6.0000
     3  2  2.50        -2.9137   5.0000
     4  0  0.50        -4.0071   1.0000
     4  1  0.50        -1.2789   0.0000
     4  3  2.50        -1.3606   0.0000
   Description
     l       E           TYP  RCUT    TYP  RCUT
     2     -2.9136677     23  2.500
     2     -4.2742503     23  2.500
     0     -4.0071322     23  2.500
     0      9.4498801     23  2.500
     1     -5.4423304     23  2.500
     1     27.2116520     23  2.500
   Error from kinetic energy argument (eV)
   NDATA  =      100
   STEP   =   20.000   1.050
  61.7      60.5      59.8      58.4      57.7      56.3      54.7      54.0
  52.3      50.7      49.8      48.1      46.4      44.6      42.8      41.0
  39.2      37.4      35.6      33.0      31.2      29.5      27.0      25.3
  23.7      21.4      19.2      17.8      15.9      14.0      12.3      10.7
  9.26      7.96      6.78      5.73      4.52      3.74      2.86      2.31
  1.71      1.23     0.870     0.597     0.398     0.256     0.160     0.855E-01
 0.513E-01 0.289E-01 0.198E-01 0.174E-01 0.169E-01 0.168E-01 0.157E-01 0.139E-01
 0.115E-01 0.838E-02 0.568E-02 0.369E-02 0.247E-02 0.188E-02 0.168E-02 0.165E-02
 0.162E-02 0.146E-02 0.120E-02 0.895E-03 0.597E-03 0.429E-03 0.343E-03 0.324E-03
 0.320E-03 0.295E-03 0.238E-03 0.178E-03 0.126E-03 0.985E-04 0.913E-04 0.896E-04
 0.804E-04 0.631E-04 0.459E-04 0.350E-04 0.323E-04 0.314E-04 0.275E-04 0.206E-04
 0.154E-04 0.136E-04 0.132E-04 0.116E-04 0.868E-05 0.679E-05 0.629E-05 0.593E-05
 0.473E-05 0.364E-05 0.324E-05 0.308E-05
END of PSCTR-controll parameters
 local part
   75.5890395431569     
  0.68883657E+02  0.68874661E+02  0.68847719E+02  0.68802834E+02  0.68740031E+02
  0.68659346E+02  0.68560825E+02  0.68444524E+02  0.68310508E+02  0.68158850E+02
  0.67989631E+02  0.67802944E+02  0.67598887E+02  0.67377567E+02  0.67139103E+02
  0.66883619E+02  0.66611251E+02  0.66322145E+02  0.66016457E+02  0.65694355E+02
  0.65356020E+02  0.65001643E+02  0.64631432E+02  0.64245605E+02  0.63844396E+02
  0.63428055E+02  0.62996843E+02  0.62551039E+02  0.62090935E+02  0.61616837E+02
  0.61129068E+02  0.60627962E+02  0.60113868E+02  0.59587148E+02  0.59048180E+02
  0.58497350E+02  0.57935060E+02  0.57361722E+02  0.56777763E+02  0.56183616E+02
  0.55579730E+02  0.54966562E+02  0.54344579E+02  0.53714256E+02  0.53076081E+02
  0.52430546E+02  0.51778152E+02  0.51119405E+02  0.50454819E+02  0.49784911E+02
  0.49110202E+02  0.48431217E+02  0.47748480E+02  0.47062519E+02  0.46373861E+02
  0.45683032E+02  0.44990554E+02  0.44296950E+02  0.43602737E+02  0.42908429E+02
  0.42214531E+02  0.41521547E+02  0.40829970E+02  0.40140288E+02  0.39452979E+02
  0.38768511E+02  0.38087344E+02  0.37409925E+02  0.36736692E+02  0.36068068E+02
  0.35404464E+02  0.34746280E+02  0.34093897E+02  0.33447686E+02  0.32808001E+02
  0.32175180E+02  0.31549547E+02  0.30931406E+02  0.30321050E+02  0.29718751E+02
  0.29124765E+02  0.28539332E+02  0.27962675E+02  0.27394998E+02  0.26836490E+02
  0.26287321E+02  0.25747644E+02  0.25217595E+02  0.24697294E+02  0.24186842E+02
  0.23686325E+02  0.23195811E+02  0.22715353E+02  0.22244988E+02  0.21784735E+02
  0.21334600E+02  0.20894574E+02  0.20464632E+02  0.20044738E+02  0.19634839E+02
  0.19234870E+02  0.18844755E+02  0.18464406E+02  0.18093721E+02  0.17732589E+02
  0.17380889E+02  0.17038490E+02  0.16705251E+02  0.16381023E+02  0.16065651E+02
  0.15758968E+02  0.15460805E+02  0.15170985E+02  0.14889324E+02  0.14615637E+02
  0.14349731E+02  0.14091411E+02  0.13840480E+02  0.13596736E+02  0.13359978E+02
  0.13130002E+02  0.12906603E+02  0.12689578E+02  0.12478721E+02  0.12273831E+02
  0.12074704E+02  0.11881141E+02  0.11692944E+02  0.11509916E+02  0.11331865E+02
  0.11158603E+02  0.10989943E+02  0.10825703E+02  0.10665708E+02  0.10509783E+02
  0.10357760E+02  0.10209479E+02  0.10064779E+02  0.99235100E+01  0.97855248E+01
  0.96506825E+01  0.95188479E+01  0.93898917E+01  0.92636905E+01  0.91401265E+01
  0.90190881E+01  0.89004691E+01  0.87841695E+01  0.86700945E+01  0.85581554E+01
  0.84482687E+01  0.83403563E+01  0.82343454E+01  0.81301684E+01  0.80277623E+01
  0.79270693E+01  0.78280358E+01  0.77306128E+01  0.76347552E+01  0.75404221E+01
  0.74475761E+01  0.73561833E+01  0.72662129E+01  0.71776374E+01  0.70904316E+01
  0.70045730E+01  0.69200415E+01  0.68368187E+01  0.67548881E+01  0.66742349E+01
  0.65948455E+01  0.65167075E+01  0.64398094E+01  0.63641405E+01  0.62896908E+01
  0.62164504E+01  0.61444098E+01  0.60735596E+01  0.60038902E+01  0.59353919E+01
  0.58680546E+01  0.58018677E+01  0.57368201E+01  0.56729002E+01  0.56100953E+01
  0.55483924E+01  0.54877774E+01  0.54282356E+01  0.53697511E+01  0.53123075E+01
  0.52558874E+01  0.52004727E+01  0.51460443E+01  0.50925825E+01  0.50400670E+01
  0.49884764E+01  0.49377892E+01  0.48879831E+01  0.48390353E+01  0.47909227E+01
  0.47436218E+01  0.46971088E+01  0.46513601E+01  0.46063515E+01  0.45620593E+01
  0.45184595E+01  0.44755288E+01  0.44332438E+01  0.43915818E+01  0.43505203E+01
  0.43100376E+01  0.42701126E+01  0.42307250E+01  0.41918551E+01  0.41534844E+01
  0.41155949E+01  0.40781699E+01  0.40411935E+01  0.40046509E+01  0.39685285E+01
  0.39328136E+01  0.38974946E+01  0.38625610E+01  0.38280037E+01  0.37938143E+01
  0.37599856E+01  0.37265117E+01  0.36933874E+01  0.36606088E+01  0.36281727E+01
  0.35960770E+01  0.35643205E+01  0.35329026E+01  0.35018235E+01  0.34710842E+01
  0.34406861E+01  0.34106312E+01  0.33809219E+01  0.33515610E+01  0.33225515E+01
  0.32938966E+01  0.32655996E+01  0.32376638E+01  0.32100926E+01  0.31828892E+01
  0.31560564E+01  0.31295971E+01  0.31035135E+01  0.30778077E+01  0.30524813E+01
  0.30275352E+01  0.30029699E+01  0.29787852E+01  0.29549804E+01  0.29315540E+01
  0.29085038E+01  0.28858268E+01  0.28635193E+01  0.28415769E+01  0.28199945E+01
  0.27987661E+01  0.27778850E+01  0.27573438E+01  0.27371346E+01  0.27172485E+01
  0.26976762E+01  0.26784080E+01  0.26594333E+01  0.26407412E+01  0.26223206E+01
  0.26041596E+01  0.25862464E+01  0.25685688E+01  0.25511143E+01  0.25338705E+01
  0.25168248E+01  0.24999649E+01  0.24832782E+01  0.24667526E+01  0.24503762E+01
  0.24341372E+01  0.24180244E+01  0.24020270E+01  0.23861348E+01  0.23703379E+01
  0.23546272E+01  0.23389943E+01  0.23234314E+01  0.23079315E+01  0.22924885E+01
  0.22770968E+01  0.22617518E+01  0.22464499E+01  0.22311881E+01  0.22159643E+01
  0.22007773E+01  0.21856268E+01  0.21705132E+01  0.21554379E+01  0.21404028E+01
  0.21254110E+01  0.21104659E+01  0.20955718E+01  0.20807338E+01  0.20659572E+01
  0.20512483E+01  0.20366134E+01  0.20220598E+01  0.20075947E+01  0.19932257E+01
  0.19789608E+01  0.19648080E+01  0.19507755E+01  0.19368713E+01  0.19231037E+01
  0.19094807E+01  0.18960100E+01  0.18826993E+01  0.18695558E+01  0.18565866E+01
  0.18437981E+01  0.18311964E+01  0.18187870E+01  0.18065749E+01  0.17945644E+01
  0.17827592E+01  0.17711624E+01  0.17597762E+01  0.17486022E+01  0.17376412E+01
  0.17268933E+01  0.17163577E+01  0.17060330E+01  0.16959168E+01  0.16860062E+01
  0.16762973E+01  0.16667858E+01  0.16574665E+01  0.16483335E+01  0.16393804E+01
  0.16306003E+01  0.16219855E+01  0.16135280E+01  0.16052194E+01  0.15970508E+01
  0.15890130E+01  0.15810965E+01  0.15732916E+01  0.15655886E+01  0.15579773E+01
  0.15504479E+01  0.15429904E+01  0.15355950E+01  0.15282520E+01  0.15209518E+01
  0.15136853E+01  0.15064436E+01  0.14992183E+01  0.14920011E+01  0.14847847E+01
  0.14775618E+01  0.14703261E+01  0.14630716E+01  0.14557930E+01  0.14484858E+01
  0.14411458E+01  0.14337700E+01  0.14263556E+01  0.14189008E+01  0.14114045E+01
  0.14038662E+01  0.13962861E+01  0.13886653E+01  0.13810052E+01  0.13733081E+01
  0.13655771E+01  0.13578154E+01  0.13500273E+01  0.13422172E+01  0.13343904E+01
  0.13265522E+01  0.13187087E+01  0.13108660E+01  0.13030308E+01  0.12952099E+01
  0.12874102E+01  0.12796389E+01  0.12719033E+01  0.12642106E+01  0.12565681E+01
  0.12489828E+01  0.12414620E+01  0.12340124E+01  0.12266408E+01  0.12193534E+01
  0.12121565E+01  0.12050557E+01  0.11980564E+01  0.11911634E+01  0.11843813E+01
  0.11777140E+01  0.11711649E+01  0.11647370E+01  0.11584326E+01  0.11522534E+01
  0.11462007E+01  0.11402751E+01  0.11344767E+01  0.11288048E+01  0.11232585E+01
  0.11178360E+01  0.11125352E+01  0.11073533E+01  0.11022871E+01  0.10973330E+01
  0.10924868E+01  0.10877439E+01  0.10830994E+01  0.10785481E+01  0.10740843E+01
  0.10697022E+01  0.10653957E+01  0.10611585E+01  0.10569841E+01  0.10528662E+01
  0.10487980E+01  0.10447729E+01  0.10407845E+01  0.10368263E+01  0.10328918E+01
  0.10289749E+01  0.10250695E+01  0.10211699E+01  0.10172706E+01  0.10133663E+01
  0.10094522E+01  0.10055238E+01  0.10015768E+01  0.99760760E+00  0.99361279E+00
  0.98958949E+00  0.98553523E+00  0.98144802E+00  0.97732629E+00  0.97316898E+00
  0.96897546E+00  0.96474557E+00  0.96047959E+00  0.95617827E+00  0.95184276E+00
  0.94747465E+00  0.94307589E+00  0.93864883E+00  0.93419616E+00  0.92972089E+00
  0.92522632E+00  0.92071602E+00  0.91619380E+00  0.91166366E+00  0.90712977E+00
  0.90259643E+00  0.89806807E+00  0.89354917E+00  0.88904423E+00  0.88455779E+00
  0.88009434E+00  0.87565832E+00  0.87125406E+00  0.86688580E+00  0.86255758E+00
  0.85827332E+00  0.85403669E+00  0.84985113E+00  0.84571987E+00  0.84164581E+00
  0.83763161E+00  0.83367958E+00  0.82979173E+00  0.82596976E+00  0.82221500E+00
  0.81852846E+00  0.81491080E+00  0.81136233E+00  0.80788303E+00  0.80447255E+00
  0.80113019E+00  0.79785495E+00  0.79464552E+00  0.79150028E+00  0.78841735E+00
  0.78539457E+00  0.78242953E+00  0.77951960E+00  0.77666195E+00  0.77385355E+00
  0.77109121E+00  0.76837162E+00  0.76569134E+00  0.76304685E+00  0.76043456E+00
  0.75785086E+00  0.75529213E+00  0.75275475E+00  0.75023515E+00  0.74772984E+00
  0.74523538E+00  0.74274848E+00  0.74026595E+00  0.73778476E+00  0.73530203E+00
  0.73281508E+00  0.73032143E+00  0.72781878E+00  0.72530507E+00  0.72277847E+00
  0.72023739E+00  0.71768047E+00  0.71510663E+00  0.71251503E+00  0.70990506E+00
  0.70727642E+00  0.70462901E+00  0.70196301E+00  0.69927882E+00  0.69657710E+00
  0.69385871E+00  0.69112474E+00  0.68837646E+00  0.68561534E+00  0.68284303E+00
  0.68006130E+00  0.67727211E+00  0.67447749E+00  0.67167961E+00  0.66888072E+00
  0.66608312E+00  0.66328919E+00  0.66050133E+00  0.65772195E+00  0.65495346E+00
  0.65219825E+00  0.64945868E+00  0.64673704E+00  0.64403556E+00  0.64135637E+00
  0.63870151E+00  0.63607289E+00  0.63347230E+00  0.63090138E+00  0.62836162E+00
  0.62585435E+00  0.62338073E+00  0.62094174E+00  0.61853820E+00  0.61617071E+00
  0.61383973E+00  0.61154551E+00  0.60928811E+00  0.60706743E+00  0.60488317E+00
  0.60273488E+00  0.60062190E+00  0.59854345E+00  0.59649858E+00  0.59448617E+00
  0.59250499E+00  0.59055367E+00  0.58863072E+00  0.58673454E+00  0.58486346E+00
  0.58301569E+00  0.58118942E+00  0.57938276E+00  0.57759378E+00  0.57582054E+00
  0.57406109E+00  0.57231348E+00  0.57057577E+00  0.56884608E+00  0.56712253E+00
  0.56540335E+00  0.56368679E+00  0.56197120E+00  0.56025501E+00  0.55853676E+00
  0.55681509E+00  0.55508874E+00  0.55335658E+00  0.55161762E+00  0.54987098E+00
  0.54811594E+00  0.54635189E+00  0.54457840E+00  0.54279516E+00  0.54100201E+00
  0.53919893E+00  0.53738605E+00  0.53556363E+00  0.53373206E+00  0.53189188E+00
  0.53004373E+00  0.52818837E+00  0.52632667E+00  0.52445960E+00  0.52258821E+00
  0.52071366E+00  0.51883716E+00  0.51695997E+00  0.51508343E+00  0.51320892E+00
  0.51133783E+00  0.50947159E+00  0.50761165E+00  0.50575943E+00  0.50391637E+00
  0.50208388E+00  0.50026332E+00  0.49845605E+00  0.49666332E+00  0.49488638E+00
  0.49312637E+00  0.49138437E+00  0.48966135E+00  0.48795822E+00  0.48627578E+00
  0.48461472E+00  0.48297562E+00  0.48135897E+00  0.47976513E+00  0.47819435E+00
  0.47664676E+00  0.47512240E+00  0.47362115E+00  0.47214282E+00  0.47068709E+00
  0.46925352E+00  0.46784158E+00  0.46645063E+00  0.46507994E+00  0.46372869E+00
  0.46239595E+00  0.46108074E+00  0.45978199E+00  0.45849857E+00  0.45722930E+00
  0.45597296E+00  0.45472827E+00  0.45349394E+00  0.45226866E+00  0.45105111E+00
  0.44983996E+00  0.44863389E+00  0.44743162E+00  0.44623188E+00  0.44503342E+00
  0.44383506E+00  0.44263565E+00  0.44143410E+00  0.44022940E+00  0.43902058E+00
  0.43780679E+00  0.43658721E+00  0.43536115E+00  0.43412799E+00  0.43288721E+00
  0.43163840E+00  0.43038124E+00  0.42911552E+00  0.42784112E+00  0.42655804E+00
  0.42526639E+00  0.42396635E+00  0.42265823E+00  0.42134242E+00  0.42001941E+00
  0.41868978E+00  0.41735417E+00  0.41601333E+00  0.41466805E+00  0.41331922E+00
  0.41196777E+00  0.41061467E+00  0.40926097E+00  0.40790772E+00  0.40655603E+00
  0.40520702E+00  0.40386183E+00  0.40252160E+00  0.40118747E+00  0.39986059E+00
  0.39854205E+00  0.39723295E+00  0.39593434E+00  0.39464723E+00  0.39337257E+00
  0.39211127E+00  0.39086417E+00  0.38963203E+00  0.38841555E+00  0.38721535E+00
  0.38603196E+00  0.38486584E+00  0.38371733E+00  0.38258672E+00  0.38147417E+00
  0.38037977E+00  0.37930352E+00  0.37824530E+00  0.37720492E+00  0.37618209E+00
  0.37517642E+00  0.37418745E+00  0.37321463E+00  0.37225732E+00  0.37131482E+00
  0.37038633E+00  0.36947101E+00  0.36856797E+00  0.36767623E+00  0.36679479E+00
  0.36592262E+00  0.36505864E+00  0.36420175E+00  0.36335084E+00  0.36250479E+00
  0.36166249E+00  0.36082282E+00  0.35998468E+00  0.35914699E+00  0.35830872E+00
  0.35746883E+00  0.35662637E+00  0.35578041E+00  0.35493009E+00  0.35407459E+00
  0.35321318E+00  0.35234519E+00  0.35147002E+00  0.35058717E+00  0.34969620E+00
  0.34879676E+00  0.34788861E+00  0.34697158E+00  0.34604559E+00  0.34511065E+00
  0.34416687E+00  0.34321443E+00  0.34225362E+00  0.34128479E+00  0.34030838E+00
  0.33932489E+00  0.33833493E+00  0.33733913E+00  0.33633822E+00  0.33533298E+00
  0.33432421E+00  0.33331281E+00  0.33229967E+00  0.33128575E+00  0.33027202E+00
  0.32925947E+00  0.32824909E+00  0.32724191E+00  0.32623893E+00  0.32524113E+00
  0.32424950E+00  0.32326499E+00  0.32228853E+00  0.32132098E+00  0.32036320E+00
  0.31941597E+00  0.31848002E+00  0.31755602E+00  0.31664457E+00  0.31574623E+00
  0.31486145E+00  0.31399063E+00  0.31313408E+00  0.31229204E+00  0.31146466E+00
  0.31065201E+00  0.30985410E+00  0.30907082E+00  0.30830202E+00  0.30754743E+00
  0.30680672E+00  0.30607950E+00  0.30536528E+00  0.30466353E+00  0.30397362E+00
  0.30329489E+00  0.30262662E+00  0.30196803E+00  0.30131832E+00  0.30067662E+00
  0.30004205E+00  0.29941372E+00  0.29879069E+00  0.29817203E+00  0.29755681E+00
  0.29694408E+00  0.29633292E+00  0.29572242E+00  0.29511166E+00  0.29449980E+00
  0.29388600E+00  0.29326944E+00  0.29264940E+00  0.29202515E+00  0.29139605E+00
  0.29076150E+00  0.29012098E+00  0.28947402E+00  0.28882022E+00  0.28815925E+00
  0.28749088E+00  0.28681491E+00  0.28613124E+00  0.28543984E+00  0.28474075E+00
  0.28403409E+00  0.28332005E+00  0.28259887E+00  0.28187089E+00  0.28113647E+00
  0.28039608E+00  0.27965020E+00  0.27889939E+00  0.27814425E+00  0.27738543E+00
  0.27662361E+00  0.27585950E+00  0.27509386E+00  0.27432744E+00  0.27356105E+00
  0.27279546E+00  0.27203149E+00  0.27126993E+00  0.27051157E+00  0.26975719E+00
  0.26900754E+00  0.26826336E+00  0.26752535E+00  0.26679418E+00  0.26607048E+00
  0.26535483E+00  0.26464777E+00  0.26394979E+00  0.26326131E+00  0.26258273E+00
  0.26191434E+00  0.26125642E+00  0.26060916E+00  0.25997269E+00  0.25934709E+00
  0.25873235E+00  0.25812843E+00  0.25753520E+00  0.25695248E+00  0.25638002E+00
  0.25581754E+00  0.25526467E+00  0.25472100E+00  0.25418609E+00  0.25365943E+00
  0.25314049E+00  0.25262868E+00  0.25212342E+00  0.25162405E+00  0.25112993E+00
  0.25064040E+00  0.25015476E+00  0.24967234E+00  0.24919244E+00  0.24871438E+00
  0.24823748E+00  0.24776107E+00  0.24728451E+00  0.24680716E+00  0.24632843E+00
  0.24584775E+00  0.24536458E+00  0.24487841E+00  0.24438880E+00  0.24389533E+00
  0.24339763E+00  0.24289539E+00  0.24238835E+00  0.24187628E+00  0.24135903E+00
  0.24083650E+00  0.24030863E+00  0.23977544E+00  0.23923696E+00  0.23869331E+00
  0.23814464E+00  0.23759116E+00  0.23703312E+00  0.23647080E+00  0.23590456E+00
  0.23533475E+00  0.23476178E+00  0.23418611E+00  0.23360819E+00  0.23302852E+00
  0.23244761E+00  0.23186599E+00  0.23128421E+00  0.23070283E+00  0.23012238E+00
  0.22954343E+00  0.22896653E+00  0.22839221E+00  0.22782101E+00  0.22725343E+00
  0.22668995E+00  0.22613103E+00  0.22557712E+00  0.22502862E+00  0.22448589E+00
  0.22394927E+00  0.22341906E+00  0.22289551E+00  0.22237885E+00  0.22186924E+00
  0.22136682E+00  0.22087168E+00  0.22038387E+00  0.21990338E+00  0.21943017E+00
  0.21896416E+00  0.21850521E+00  0.21805316E+00  0.21760779E+00  0.21716887E+00
  0.21673611E+00  0.21630919E+00  0.21588777E+00  0.21547149E+00  0.21505995E+00
  0.21465273E+00  0.21424941E+00  0.21384954E+00  0.21345267E+00  0.21305834E+00
  0.21266610E+00  0.21227547E+00  0.21188600E+00  0.21149724E+00  0.21110874E+00
  0.21072008E+00  0.21033085E+00  0.20994065E+00  0.20954911E+00  0.20915587E+00
  0.20876063E+00  0.20836309E+00  0.20796299E+00  0.20756009E+00  0.20715422E+00
  0.20674521E+00  0.20633293E+00  0.20591732E+00  0.20549831E+00  0.20507590E+00
  0.20465012E+00  0.20422102E+00  0.20378870E+00  0.20335329E+00  0.20291495E+00
  0.20247387E+00  0.20203027E+00  0.20158439E+00  0.20113651E+00  0.20068691E+00
  0.20023591E+00  0.19978384E+00  0.19933104E+00  0.19887788E+00  0.19842472E+00
  0.19797193E+00  0.19751989E+00  0.19706898E+00  0.19661957E+00  0.19617204E+00
  0.19572673E+00  0.19528402E+00  0.19484421E+00  0.19440765E+00  0.19397462E+00
  0.19354540E+00  0.19312026E+00  0.19269941E+00  0.19228308E+00  0.19187144E+00
  0.19146464E+00  0.19106281E+00  0.19066603E+00  0.19027438E+00  0.18988789E+00
 gradient corrections used for XC
           5
 core charge-density (partial)
  0.27589188E+01  0.27577548E+01  0.27542659E+01  0.27484608E+01  0.27403538E+01
  0.27299651E+01  0.27173206E+01  0.27024515E+01  0.26853944E+01  0.26661912E+01
  0.26448887E+01  0.26215386E+01  0.25961973E+01  0.25689254E+01  0.25397878E+01
  0.25088530E+01  0.24761935E+01  0.24418848E+01  0.24060053E+01  0.23686365E+01
  0.23298619E+01  0.22897672E+01  0.22484400E+01  0.22059690E+01  0.21624444E+01
  0.21179568E+01  0.20725977E+01  0.20264584E+01  0.19796304E+01  0.19322047E+01
  0.18842714E+01  0.18359200E+01  0.17872386E+01  0.17383138E+01  0.16892306E+01
  0.16400722E+01  0.15909195E+01  0.15418512E+01  0.14929436E+01  0.14442701E+01
  0.13959016E+01  0.13479061E+01  0.13003484E+01  0.12532905E+01  0.12067908E+01
  0.11609048E+01  0.11156846E+01  0.10711789E+01  0.10274331E+01  0.98448929E+00
  0.94238603E+00  0.90115864E+00  0.86083912E+00  0.82145616E+00  0.78303520E+00
  0.74559851E+00  0.70916527E+00  0.67375156E+00  0.63937055E+00  0.60603251E+00
  0.57374493E+00  0.54251264E+00  0.51233786E+00  0.48322038E+00  0.45515760E+00
  0.42814469E+00  0.40217468E+00  0.37723861E+00  0.35332561E+00  0.33042304E+00
  0.30851662E+00  0.28759052E+00  0.26762749E+00  0.24860899E+00  0.23051531E+00
  0.21332564E+00  0.19701823E+00  0.18157046E+00  0.16695899E+00  0.15315981E+00
  0.14014839E+00  0.12789973E+00  0.11638849E+00  0.10558906E+00  0.95475651E-01
  0.86022363E-01  0.77203280E-01  0.68992533E-01  0.61364370E-01  0.54293224E-01
  0.47753767E-01  0.41720974E-01  0.36170169E-01  0.31077079E-01  0.26417873E-01
  0.22169208E-01  0.18308262E-01  0.14812768E-01  0.11661045E-01  0.88320208E-02
  0.63052583E-02  0.40609719E-02  0.20800448E-02  0.34404175E-03 -0.11647808E-02
 -0.24634675E-02 -0.35683594E-02 -0.44950916E-02 -0.52585938E-02 -0.58730924E-02
 -0.63521154E-02 -0.67084987E-02 -0.69543944E-02 -0.71012813E-02 -0.71599757E-02
 -0.71406452E-02 -0.70528225E-02 -0.69054212E-02 -0.67067523E-02 -0.64645414E-02
 -0.61859472E-02 -0.58775808E-02 -0.55455246E-02 -0.51953529E-02 -0.48321522E-02
 -0.44605419E-02 -0.40846953E-02 -0.37083610E-02 -0.33348835E-02 -0.29672244E-02
 -0.26079838E-02 -0.22594207E-02 -0.19234735E-02 -0.16017805E-02 -0.12956997E-02
 -0.10063282E-02 -0.73452129E-03 -0.48091108E-03 -0.24592438E-03 -0.29800231E-04
  0.16739323E-03  0.34574254E-03  0.50547327E-03  0.64693509E-03  0.77058744E-03
  0.87698590E-03  0.96676929E-03  0.10406474E-02  0.10993893E-02  0.11438129E-02
  0.11747740E-02  0.11931577E-02  0.11998687E-02  0.11958238E-02  0.11819438E-02
  0.11591472E-02  0.11283431E-02  0.10904265E-02  0.10462724E-02  0.99673158E-03
  0.94262653E-03  0.88474802E-03  0.82385202E-03  0.76065722E-03  0.69584295E-03
  0.63004750E-03  0.56386692E-03  0.49785407E-03  0.43251816E-03  0.36832452E-03
  0.30569469E-03  0.24500683E-03  0.18659632E-03  0.13075667E-03  0.77740563E-04
  0.27761116E-04 -0.19006670E-04 -0.62424352E-04 -0.10238835E-03 -0.13882813E-03
 -0.17170434E-03 -0.20100685E-03 -0.22675270E-03 -0.24898413E-03 -0.26776646E-03
 -0.28318602E-03 -0.29534811E-03 -0.30437495E-03 -0.31040363E-03 -0.31358417E-03
 -0.31407759E-03 -0.31205399E-03 -0.30769083E-03 -0.30117112E-03 -0.29268182E-03
 -0.28241225E-03 -0.27055262E-03 -0.25729260E-03 -0.24282010E-03 -0.22732000E-03
 -0.21097307E-03 -0.19395499E-03 -0.17643541E-03 -0.15857714E-03 -0.14053548E-03
 -0.12245755E-03 -0.10448180E-03 -0.86737544E-04 -0.69344653E-04 -0.52413261E-04
 -0.36043595E-04 -0.20325868E-04 -0.53402482E-05  0.88431025E-05  0.22163929E-04
  0.34571717E-04  0.46025480E-04  0.56493486E-04  0.65952946E-04  0.74389656E-04
  0.81797604E-04  0.88178543E-04  0.93541544E-04  0.97902510E-04  0.10128369E-03
  0.10371316E-03  0.10522432E-03  0.10585535E-03  0.10564868E-03  0.10465047E-03
  0.10291009E-03  0.10047959E-03  0.97413193E-04  0.93766821E-04  0.89597586E-04
  0.84963350E-04  0.79922274E-04  0.74532401E-04  0.68851257E-04  0.62935481E-04
  0.56840475E-04  0.50620083E-04  0.44326301E-04  0.38009005E-04  0.31715718E-04
  0.25491398E-04  0.19378255E-04  0.13415599E-04  0.76397097E-05  0.20837384E-05
 -0.32223663E-05 -0.82519081E-05 -0.12981467E-04 -0.17390902E-04 -0.21463328E-04
 -0.25185077E-04 -0.28545634E-04 -0.31537558E-04 -0.34156388E-04 -0.36400528E-04
 -0.38271124E-04 -0.39771923E-04 -0.40909124E-04 -0.41691224E-04 -0.42128844E-04
 -0.42234562E-04 -0.42022731E-04 -0.41509300E-04 -0.40711627E-04 -0.39648297E-04
 -0.38338933E-04 -0.36804017E-04 -0.35064706E-04 -0.33142656E-04 -0.31059850E-04
 -0.28838430E-04 -0.26500536E-04 -0.24068158E-04 -0.21562982E-04 -0.19006260E-04
 -0.16418679E-04 -0.13820244E-04 -0.11230170E-04 -0.86667791E-05 -0.61474189E-05
 -0.36883801E-05 -0.13048310E-05  0.98923942E-06  0.31810680E-05  0.52591531E-05
  0.72132810E-05  0.90345415E-05  0.10715335E-04  0.12249370E-04  0.13631651E-04
  0.14858461E-04  0.15927331E-04  0.16837009E-04  0.17587415E-04  0.18179596E-04
  0.18615671E-04  0.18898773E-04  0.19032986E-04  0.19023279E-04  0.18875436E-04
  0.18595980E-04  0.18192103E-04  0.17671587E-04  0.17042727E-04  0.16314251E-04
  0.15495249E-04  0.14595088E-04  0.13623344E-04  0.12589720E-04  0.11503981E-04
  0.10375880E-04  0.92150899E-05  0.80311457E-05  0.68333782E-05  0.56308596E-05
  0.44323509E-05  0.32462529E-05  0.20805618E-05  0.94282974E-06 -0.15987111E-06
 -0.12209789E-05 -0.22344685E-05 -0.31948729E-05 -0.40973000E-05 -0.49374453E-05
 -0.57115999E-05 -0.64166535E-05 -0.70500946E-05 -0.76100052E-05 -0.80950530E-05
 -0.85044785E-05 -0.88380799E-05 -0.90961942E-05 -0.92796751E-05 -0.93898689E-05
 -0.94285874E-05 -0.93980785E-05 -0.93009954E-05 -0.91403637E-05 -0.89195472E-05
 -0.86422132E-05 -0.83122958E-05 -0.79339600E-05 -0.75115644E-05 -0.70496248E-05
 -0.65527770E-05 -0.60257411E-05 -0.54732859E-05 -0.49001944E-05 -0.43112298E-05
 -0.37111041E-05 -0.31044469E-05 -0.24957760E-05 -0.18894708E-05 -0.12897460E-05
 -0.70062870E-06 -0.12593657E-06  0.43074131E-06  0.96606152E-06  0.14769412E-05
  0.19605704E-05  0.24144230E-05  0.28362638E-05  0.32241551E-05  0.35764599E-05
  0.38918434E-05  0.41692721E-05  0.44080114E-05  0.46076207E-05  0.47679468E-05
  0.48891159E-05  0.49715235E-05  0.50158230E-05  0.50229129E-05  0.49939229E-05
  0.49301985E-05  0.48332848E-05  0.47049098E-05  0.45469664E-05  0.43614942E-05
  0.41506607E-05  0.39167427E-05  0.36621068E-05  0.33891904E-05  0.31004824E-05
  0.27985052E-05  0.24857953E-05  0.21648861E-05  0.18382902E-05  0.15084828E-05
  0.11778856E-05  0.84885216E-06  0.52365334E-06  0.20446437E-06 -0.10664728E-06
 -0.40773289E-06 -0.69697232E-06 -0.97268271E-06 -0.12333259E-05 -0.14775147E-05
 -0.17040180E-05 -0.19117645E-05 -0.20998454E-05 -0.22675157E-05 -0.24141947E-05
 -0.25394651E-05 -0.26430707E-05 -0.27249140E-05 -0.27850518E-05 -0.28236903E-05
 -0.28411797E-05 -0.28380071E-05 -0.28147894E-05 -0.27722654E-05 -0.27112867E-05
 -0.26328094E-05 -0.25378836E-05 -0.24276441E-05 -0.23032998E-05 -0.21661235E-05
 -0.20174412E-05 -0.18586212E-05 -0.16910640E-05 -0.15161912E-05 -0.13354354E-05
 -0.11502300E-05 -0.96199927E-06 -0.77214861E-06 -0.58205570E-06 -0.39306156E-06
 -0.20646239E-06 -0.23501892E-07  0.15463587E-06  0.32683298E-06  0.49204354E-06
  0.64929890E-06  0.79771223E-06  0.93648240E-06  0.10648971E-05  0.11823354E-05
  0.12882696E-05  0.13822660E-05  0.14639859E-05  0.15331849E-05  0.15897123E-05
  0.16335095E-05  0.16646079E-05  0.16831265E-05  0.16892683E-05  0.16833173E-05
  0.16656339E-05  0.16366503E-05  0.15968662E-05  0.15468431E-05  0.14871987E-05
  0.14186017E-05  0.13417655E-05  0.12574419E-05  0.11664154E-05  0.10694966E-05
  0.96751624E-06  0.86131848E-06  0.75175519E-06  0.63967964E-06  0.52594066E-06
  0.41137689E-06  0.29681123E-06  0.18304564E-06  0.70856067E-07 -0.39012173E-07
 -0.14584879E-06 -0.24898253E-06 -0.34778477E-06 -0.44167284E-06 -0.53011281E-06
 -0.61262202E-06 -0.68877102E-06 -0.75818531E-06 -0.82054646E-06 -0.87559293E-06
 -0.92312049E-06 -0.96298215E-06 -0.99508780E-06 -0.10194034E-05 -0.10359498E-05
 -0.10448013E-05 -0.10460839E-05 -0.10399728E-05 -0.10266906E-05 -0.10065040E-05
 -0.97972125E-06 -0.94668885E-06 -0.90778835E-06 -0.86343279E-06 -0.81406312E-06
 -0.76014448E-06 -0.70216241E-06 -0.64061901E-06 -0.57602910E-06 -0.50891636E-06
 -0.43980947E-06 -0.36923842E-06 -0.29773077E-06 -0.22580807E-06 -0.15398246E-06
 -0.82753309E-07 -0.12604083E-07  0.56000584E-07  0.12261768E-06  0.18682833E-06
  0.24824017E-06  0.30648938E-06  0.36124252E-06  0.41219820E-06  0.45908831E-06
  0.50167916E-06  0.53977230E-06  0.57320501E-06  0.60185068E-06  0.62561879E-06
  0.64445472E-06  0.65833933E-06  0.66728825E-06  0.67135099E-06  0.67060982E-06
  0.66517848E-06  0.65520064E-06  0.64084826E-06  0.62231979E-06  0.59983814E-06
  0.57364865E-06  0.54401685E-06  0.51122622E-06  0.47557579E-06  0.43737779E-06
  0.39695511E-06  0.35463895E-06  0.31076627E-06  0.26567735E-06  0.21971340E-06
  0.17321420E-06  0.12651571E-06  0.79947922E-07  0.33832690E-07 -0.11518330E-07
 -0.55805581E-07 -0.98743418E-07 -0.14006177E-06 -0.17950765E-06 -0.21684656E-06
 -0.25186366E-06 -0.28436488E-06 -0.31417774E-06 -0.34115215E-06 -0.36516087E-06
 -0.38610001E-06 -0.40388913E-06 -0.41847137E-06 -0.42981331E-06 -0.43790469E-06
 -0.44275801E-06 -0.44440796E-06 -0.44291066E-06 -0.43834289E-06 -0.43080108E-06
 -0.42040024E-06 -0.40727277E-06 -0.39156720E-06 -0.37344680E-06 -0.35308817E-06
 -0.33067972E-06 -0.30642015E-06 -0.28051685E-06 -0.25318427E-06 -0.22464236E-06
 -0.19511485E-06 -0.16482770E-06 -0.13400748E-06 -0.10287975E-06 -0.71667610E-07
 -0.40590125E-07 -0.98609604E-08  0.20313011E-07  0.49732984E-07  0.78209436E-07
  0.10556323E-06  0.13162666E-06  0.15624436E-06  0.17927410E-06  0.20058757E-06
  0.22007091E-06  0.23762524E-06  0.25316703E-06  0.26662839E-06  0.27795717E-06
  0.28711707E-06  0.29408752E-06  0.29886353E-06  0.30145543E-06  0.30188844E-06
  0.30020228E-06  0.29645052E-06  0.29070000E-06  0.28303010E-06  0.27353190E-06
  0.26230738E-06  0.24946845E-06  0.23513604E-06  0.21943902E-06  0.20251321E-06
  0.18450030E-06  0.16554674E-06  0.14580263E-06  0.12542067E-06  0.10455498E-06
  0.83360071E-07  0.61989726E-07  0.40595992E-07  0.19328146E-07 -0.16682815E-08
 -0.22252431E-07 -0.42289000E-07 -0.61649070E-07 -0.80210867E-07 -0.97860473E-07
 -0.11449246E-06 -0.13001043E-06 -0.14432758E-06 -0.15736701E-06 -0.16906216E-06
 -0.17935703E-06 -0.18820637E-06 -0.19557579E-06 -0.20144181E-06 -0.20579179E-06
 -0.20862382E-06 -0.20994655E-06 -0.20977891E-06 -0.20814980E-06 -0.20509771E-06
 -0.20067026E-06 -0.19492370E-06 -0.18792239E-06 -0.17973817E-06 -0.17044975E-06
 -0.16014204E-06 -0.14890543E-06 -0.13683508E-06 -0.12403019E-06 -0.11059321E-06
 -0.96629087E-07 -0.82244516E-07 -0.67547143E-07 -0.52644820E-07 -0.37644854E-07
 -0.22653279E-07 -0.77741447E-08  0.68911613E-08  0.21244567E-07  0.35191932E-07
  0.48643624E-07  0.61515058E-07  0.73727187E-07  0.85206947E-07  0.95887657E-07
  0.10570936E-06  0.11461911E-06  0.12257124E-06  0.12952750E-06  0.13545724E-06
  0.14033744E-06  0.14415277E-06  0.14689554E-06  0.14856561E-06  0.14917028E-06
  0.14872409E-06  0.14724861E-06  0.14477214E-06  0.14132943E-06  0.13696128E-06
  0.13171422E-06  0.12564003E-06  0.11879531E-06  0.11124101E-06  0.10304193E-06
  0.94266220E-07  0.84984818E-07  0.75270946E-07  0.65199549E-07  0.54846753E-07
  0.44289318E-07  0.33604098E-07  0.22867508E-07  0.12155008E-07  0.15405954E-08
 -0.89036793E-08 -0.19108175E-07 -0.29006099E-07 -0.38533922E-07 -0.47631756E-07
 -0.56243709E-07 -0.64318202E-07 -0.71808249E-07 -0.78671706E-07 -0.84871477E-07
 -0.90375690E-07 -0.95157820E-07 -0.99196789E-07 -0.10247702E-06 -0.10498843E-06
 -0.10672646E-06 -0.10769196E-06 -0.10789110E-06 -0.10733528E-06 -0.10604091E-06
 -0.10402925E-06 -0.10132617E-06 -0.97961899E-07 -0.93970731E-07 -0.89390737E-07
 -0.84263435E-07 -0.78633441E-07 -0.72548117E-07 -0.66057195E-07 -0.59212399E-07
 -0.52067048E-07 -0.44675670E-07 -0.37093602E-07 -0.29376595E-07 -0.21580424E-07
 -0.13760503E-07 -0.59715049E-08  0.17329974E-08  0.93008874E-08  0.16681839E-07
  0.23827636E-07  0.30692467E-07  0.37233208E-07  0.43409672E-07  0.49184839E-07
  0.54525065E-07  0.59400253E-07  0.63784009E-07  0.67653763E-07  0.70990860E-07
  0.73780634E-07  0.76012436E-07  0.77679650E-07  0.78779673E-07  0.79313867E-07
  0.79287488E-07  0.78709587E-07  0.77592890E-07  0.75953650E-07  0.73811476E-07
  0.71189152E-07  0.68112423E-07  0.64609776E-07  0.60712195E-07  0.56452911E-07
  0.51867141E-07  0.46991805E-07  0.41865253E-07  0.36526974E-07  0.31017307E-07
  0.25377148E-07  0.19647661E-07  0.13869991E-07  0.80849746E-08  0.23328701E-08
 -0.33469157E-08 -0.89160846E-08 -0.14337695E-07 -0.19576394E-07 -0.24598640E-07
 -0.29372902E-07 -0.33869852E-07 -0.38062526E-07 -0.41926482E-07 -0.45439924E-07
 -0.48583813E-07 -0.51341960E-07 -0.53701090E-07 -0.55650889E-07 -0.57184034E-07
 -0.58296196E-07 -0.58986024E-07 -0.59255109E-07 -0.59107929E-07 -0.58551775E-07
 -0.57596658E-07 -0.56255198E-07 -0.54542499E-07 -0.52476007E-07 -0.50075354E-07
 -0.47362189E-07 -0.44360000E-07 -0.41093924E-07 -0.37590549E-07 -0.33877709E-07
 -0.29984271E-07 -0.25939924E-07 -0.21774961E-07 -0.17520058E-07 -0.13206060E-07
 -0.88637664E-08 -0.45237149E-08 -0.21597838E-09  0.40300374E-08  0.81857865E-08
  0.12223767E-07  0.16117695E-07  0.19842670E-07  0.23375324E-07  0.26693962E-07
  0.29778685E-07  0.32611506E-07  0.35176440E-07  0.37459589E-07  0.39449207E-07
  0.41135748E-07  0.42511903E-07  0.43572615E-07  0.44315083E-07  0.44738748E-07
  0.44845266E-07  0.44638460E-07  0.44124269E-07  0.43310672E-07  0.42207604E-07
  0.40826861E-07  0.39181991E-07  0.37288174E-07  0.35162098E-07  0.32821817E-07
  0.30286611E-07  0.27576833E-07  0.24713754E-07  0.21719405E-07  0.18616411E-07
  0.15427828E-07  0.12176977E-07  0.88872823E-08  0.55821041E-08  0.22845805E-08
 -0.98252911E-09 -0.41969963E-08 -0.73372692E-08 -0.10382612E-07 -0.13313236E-07
 -0.16110425E-07 -0.18756644E-07 -0.21235653E-07 -0.23532590E-07 -0.25634064E-07
 -0.27528219E-07 -0.29204802E-07 -0.30655205E-07 -0.31872505E-07 -0.32851486E-07
 -0.33588657E-07 -0.34082244E-07 -0.34332183E-07 -0.34340099E-07 -0.34109267E-07
 -0.33644568E-07 -0.32952436E-07 -0.32040788E-07 -0.30918950E-07 -0.29597578E-07
 -0.28088560E-07 -0.26404918E-07 -0.24560708E-07 -0.22570902E-07 -0.20451277E-07
 -0.18218292E-07 -0.15888967E-07 -0.13480758E-07 -0.11011430E-07 -0.84989275E-08
 -0.59612544E-08 -0.34163433E-08 -0.88193546E-09  0.16245400E-08  0.40860821E-08
  0.64862290E-08  0.88091654E-08  0.11039822E-07  0.13163970E-07  0.15168308E-07
  0.17040542E-07  0.18769456E-07  0.20344973E-07  0.21758215E-07  0.23001542E-07
  0.24068594E-07  0.24954311E-07  0.25654957E-07  0.26168127E-07  0.26492742E-07
  0.26629043E-07  0.26578570E-07  0.26344136E-07  0.25929787E-07  0.25340764E-07
  0.24583442E-07  0.23665282E-07  0.22594757E-07  0.21381281E-07  0.20035138E-07
  0.18567391E-07  0.16989801E-07  0.15314737E-07  0.13555078E-07  0.11724123E-07
  0.98354896E-08  0.79030172E-08  0.59406694E-08  0.39624352E-08  0.19822321E-08
  0.13811101E-10 -0.19293362E-08 -0.38340671E-08 -0.56876745E-08 -0.74779684E-08
 -0.91933539E-08 -0.10822903E-07 -0.12356423E-07 -0.13784515E-07 -0.15098631E-07
 -0.16291119E-07 -0.17355268E-07 -0.18285340E-07 -0.19076598E-07 -0.19725325E-07
 -0.20228838E-07 -0.20585492E-07 -0.20794678E-07 -0.20856818E-07 -0.20773342E-07
 -0.20546671E-07 -0.20180186E-07 -0.19678192E-07 -0.19045877E-07 -0.18289266E-07
 -0.17415165E-07 -0.16431111E-07 -0.15345304E-07 -0.14166546E-07 -0.12904170E-07
 -0.11567973E-07 -0.10168138E-07 -0.87151610E-08 -0.72197750E-08 -0.56928722E-08
 -0.41454269E-08 -0.25884187E-08 -0.10327568E-08  0.51079455E-09  0.20316884E-08
  0.35196657E-08  0.49648219E-08  0.63576715E-08  0.76892080E-08  0.89509603E-08
  0.10135045E-07  0.11234212E-07  0.12241889E-07  0.13152217E-07  0.13960083E-07
  0.14661145E-07  0.15251852E-07  0.15729462E-07  0.16092046E-07  0.16338499E-07
  0.16468527E-07  0.16482650E-07  0.16382179E-07  0.16169206E-07  0.15846572E-07
  0.15417845E-07  0.14887281E-07  0.14259791E-07  0.13540895E-07  0.12736681E-07
  0.11853750E-07  0.10899171E-07  0.98804222E-08  0.88053347E-08  0.76820361E-08
  0.65188891E-08  0.53244319E-08  0.41073165E-08  0.28762481E-08  0.16399237E-08
 kinetic energy density (partial)
  0.20710171E+03  0.20701593E+03  0.20675881E+03  0.20633098E+03  0.20573346E+03
  0.20496771E+03  0.20403557E+03  0.20293930E+03  0.20168153E+03  0.20026525E+03
  0.19869385E+03  0.19697104E+03  0.19510087E+03  0.19308772E+03  0.19093625E+03
  0.18865142E+03  0.18623844E+03  0.18370278E+03  0.18105009E+03  0.17828627E+03
  0.17541737E+03  0.17244961E+03  0.16938932E+03  0.16624295E+03  0.16301707E+03
  0.15971827E+03  0.15635320E+03  0.15292855E+03  0.14945099E+03  0.14592718E+03
  0.14236373E+03  0.13876719E+03  0.13514405E+03  0.13150069E+03  0.12784338E+03
  0.12417824E+03  0.12051129E+03  0.11684835E+03  0.11319509E+03  0.10955699E+03
  0.10593933E+03  0.10234720E+03  0.98785461E+02  0.95258769E+02  0.91771542E+02
  0.88327969E+02  0.84932003E+02  0.81587356E+02  0.78297496E+02  0.75065648E+02
  0.71894793E+02  0.68787667E+02  0.65746763E+02  0.62774334E+02  0.59872392E+02
  0.57042718E+02  0.54286859E+02  0.51606140E+02  0.49001662E+02  0.46474314E+02
  0.44024775E+02  0.41653526E+02  0.39360850E+02  0.37146845E+02  0.35011432E+02
  0.32954358E+02  0.30975209E+02  0.29073418E+02  0.27248271E+02  0.25498918E+02
  0.23824380E+02  0.22223558E+02  0.20695243E+02  0.19238124E+02  0.17850794E+02
  0.16531763E+02  0.15279462E+02  0.14092253E+02  0.12968439E+02  0.11906266E+02
  0.10903938E+02  0.99596156E+01  0.90714322E+01  0.82374938E+01  0.74558887E+01
  0.67246930E+01  0.60419766E+01  0.54058088E+01  0.48142636E+01  0.42654251E+01
  0.37573916E+01  0.32882809E+01  0.28562336E+01  0.24594177E+01  0.20960316E+01
  0.17643077E+01  0.14625153E+01  0.11889633E+01  0.94200248E+00  0.72002802E+00
  0.52148105E+00  0.34485046E+00  0.18867427E+00  0.51540793E-01 -0.67910420E-01
 -0.17098786E+00 -0.25894756E+00 -0.33299275E+00 -0.39427376E+00 -0.44388804E+00
 -0.48288039E+00 -0.51224334E+00 -0.53291765E+00 -0.54579298E+00 -0.55170866E+00
 -0.55145461E+00 -0.54577229E+00 -0.53535587E+00 -0.52085338E+00 -0.50286797E+00
 -0.48195925E+00 -0.45864471E+00 -0.43340112E+00 -0.40666607E+00 -0.37883945E+00
 -0.35028502E+00 -0.32133203E+00 -0.29227671E+00 -0.26338397E+00 -0.23488893E+00
 -0.20699854E+00 -0.17989317E+00 -0.15372815E+00 -0.12863535E+00 -0.10472469E+00
 -0.82085637E-01 -0.60788676E-01 -0.40886731E-01 -0.22416561E-01 -0.54001111E-02
  0.10154184E-01  0.24250139E-01  0.36902602E-01  0.48136292E-01  0.57984685E-01
  0.66488952E-01  0.73696944E-01  0.79662238E-01  0.84443228E-01  0.88102275E-01
  0.90704901E-01  0.92319046E-01  0.93014372E-01  0.92861608E-01  0.91931966E-01
  0.90296587E-01  0.88026041E-01  0.85189881E-01  0.81856229E-01  0.78091417E-01
  0.73959662E-01  0.69522789E-01  0.64839985E-01  0.59967596E-01  0.54958957E-01
  0.49864254E-01  0.44730420E-01  0.39601058E-01  0.34516397E-01  0.29513264E-01
  0.24625090E-01  0.19881935E-01  0.15310528E-01  0.10934333E-01  0.67736295E-02
  0.28456023E-02 -0.83554658E-03 -0.42584803E-02 -0.74145976E-02 -0.10297895E-01
 -0.12904822E-01 -0.15234130E-01 -0.17286717E-01 -0.19065470E-01 -0.20575106E-01
 -0.21822007E-01 -0.22814066E-01 -0.23560521E-01 -0.24071801E-01 -0.24359373E-01
 -0.24435587E-01 -0.24313534E-01 -0.24006901E-01 -0.23529839E-01 -0.22896829E-01
 -0.22122562E-01 -0.21221822E-01 -0.20209372E-01 -0.19099859E-01 -0.17907712E-01
 -0.16647059E-01 -0.15331647E-01 -0.13974767E-01 -0.12589191E-01 -0.11187118E-01
 -0.97801179E-02 -0.83790956E-02 -0.69942517E-02 -0.56350560E-02 -0.43102247E-02
 -0.30277056E-02 -0.17946684E-02 -0.61750137E-03  0.49818704E-03  0.15475611E-02
  0.25265461E-02  0.34318123E-02  0.42607549E-02  0.50114698E-02  0.56827271E-02
  0.62739405E-02  0.67851349E-02  0.72169114E-02  0.75704108E-02  0.78472750E-02
  0.80496079E-02  0.81799345E-02  0.82411605E-02  0.82365309E-02  0.81695886E-02
  0.80441338E-02  0.78641832E-02  0.76339308E-02  0.73577087E-02  0.70399499E-02
  0.66851518E-02  0.62978420E-02  0.58825445E-02  0.54437490E-02  0.49858814E-02
  0.45132760E-02  0.40301507E-02  0.35405831E-02  0.30484898E-02  0.25576075E-02
  0.20714757E-02  0.15934226E-02  0.11265524E-02  0.67373522E-03  0.23759875E-03
 -0.17947794E-03 -0.57536849E-03 -0.94820154E-03 -0.12963612E-02 -0.16184857E-02
 -0.19134644E-02 -0.21804336E-02 -0.24187700E-02 -0.26280841E-02 -0.28082113E-02
 -0.29592021E-02 -0.30813123E-02 -0.31749906E-02 -0.32408668E-02 -0.32797392E-02
 -0.32925607E-02 -0.32804251E-02 -0.32445533E-02 -0.31862786E-02 -0.31070324E-02
 -0.30083298E-02 -0.28917555E-02 -0.27589492E-02 -0.26115922E-02 -0.24513936E-02
 -0.22800773E-02 -0.20993693E-02 -0.19109861E-02 -0.17166227E-02 -0.15179419E-02
 -0.13165646E-02 -0.11140600E-02 -0.91193735E-03 -0.71163774E-03 -0.51452744E-03
 -0.32189152E-03 -0.13492847E-03  0.45254313E-04  0.21764435E-03  0.38132698E-03
  0.53548757E-03  0.67941289E-03  0.81249176E-03  0.93421500E-03  0.10441747E-02
  0.11420628E-02  0.12276689E-02  0.13008782E-02  0.13616675E-02  0.14101024E-02
  0.14463328E-02  0.14705885E-02  0.14831742E-02  0.14844647E-02  0.14748993E-02
  0.14549759E-02  0.14252459E-02  0.13863073E-02  0.13387996E-02  0.12833972E-02
  0.12208037E-02  0.11517454E-02  0.10769659E-02  0.99722009E-03  0.91326846E-03
  0.82587165E-03  0.73578521E-03  0.64375456E-03  0.55051028E-03  0.45676359E-03
  0.36320217E-03  0.27048638E-03  0.17924566E-03  0.90075422E-04  0.35341706E-05
 -0.79858916E-04 -0.15962612E-03 -0.23533291E-03 -0.30658935E-03 -0.37305111E-03
 -0.43442019E-03 -0.49044519E-03 -0.54092143E-03 -0.58569054E-03 -0.62463995E-03
 -0.65770193E-03 -0.68485246E-03 -0.70610980E-03 -0.72153285E-03 -0.73121923E-03
 -0.73530330E-03 -0.73395382E-03 -0.72737164E-03 -0.71578712E-03 -0.69945752E-03
 -0.67866425E-03 -0.65371012E-03 -0.62491644E-03 -0.59262019E-03 -0.55717117E-03
 -0.51892908E-03 -0.47826074E-03 -0.43553731E-03 -0.39113158E-03 -0.34541530E-03
 -0.29875673E-03 -0.25151816E-03 -0.20405363E-03 -0.15670678E-03 -0.10980882E-03
 -0.63676684E-04 -0.18611311E-04  0.25103885E-04  0.67204381E-04  0.10744574E-03
  0.14560461E-03  0.18147960E-03  0.21489190E-03  0.24568578E-03  0.27372890E-03
  0.29891247E-03  0.32115121E-03  0.34038317E-03  0.35656939E-03  0.36969344E-03
  0.37976080E-03  0.38679808E-03  0.39085219E-03  0.39198937E-03  0.39029406E-03
  0.38586781E-03  0.37882798E-03  0.36930642E-03  0.35744816E-03  0.34340995E-03
  0.32735879E-03  0.30947052E-03  0.28992828E-03  0.26892102E-03  0.24664205E-03
  0.22328755E-03  0.19905511E-03  0.17414238E-03  0.14874563E-03  0.12305853E-03
  0.97270796E-04  0.71567094E-04  0.46125866E-04  0.21118311E-04 -0.32925808E-05
 -0.26952895E-04 -0.49718587E-04 -0.71456168E-04 -0.92043316E-04 -0.11136938E-03
 -0.12933577E-03 -0.14585634E-03 -0.16085753E-03 -0.17427854E-03 -0.18607139E-03
 -0.19620083E-03 -0.20464422E-03 -0.21139133E-03 -0.21644404E-03 -0.21981596E-03
 -0.22153200E-03 -0.22162788E-03 -0.22014955E-03 -0.21715260E-03 -0.21270157E-03
 -0.20686927E-03 -0.19973603E-03 -0.19138895E-03 -0.18192106E-03 -0.17143056E-03
 -0.16001997E-03 -0.14779530E-03 -0.13486524E-03 -0.12134031E-03 -0.10733206E-03
 -0.92952274E-04 -0.78312195E-04 -0.63521763E-04 -0.48688905E-04 -0.33918843E-04
 -0.19313443E-04 -0.49706116E-05  0.90162739E-05  0.22558880E-04  0.35574389E-04
  0.47985916E-04  0.59722874E-04  0.70721293E-04  0.80924075E-04  0.90281201E-04
  0.98749884E-04  0.10629467E-03  0.11288747E-03  0.11850759E-03  0.12314161E-03
  0.12678336E-03  0.12943371E-03  0.13110040E-03  0.13179778E-03  0.13154658E-03
  0.13037354E-03  0.12831113E-03  0.12539711E-03  0.12167418E-03  0.11718954E-03
  0.11199442E-03  0.10614368E-03  0.99695262E-04  0.92709787E-04  0.85250012E-04
  0.77380366E-04  0.69166460E-04  0.60674601E-04  0.51971320E-04  0.43122907E-04
  0.34194963E-04  0.25251961E-04  0.16356836E-04  0.75705860E-05 -0.10480941E-05
 -0.94431613E-05 -0.17561542E-04 -0.25353424E-04 -0.32772512E-04 -0.39776267E-04
 -0.46326094E-04 -0.52387517E-04 -0.57930309E-04 -0.62928597E-04 -0.67360928E-04
 -0.71210309E-04 -0.74464212E-04 -0.77114552E-04 -0.79157629E-04 -0.80594049E-04
 -0.81428610E-04 -0.81670169E-04 -0.81331480E-04 -0.80429011E-04 -0.78982740E-04
 -0.77015930E-04 -0.74554893E-04 -0.71628729E-04 -0.68269064E-04 -0.64509765E-04
 -0.60386660E-04 -0.55937236E-04 -0.51200347E-04 -0.46215911E-04 -0.41024608E-04
 -0.35667586E-04 -0.30186164E-04 -0.24621542E-04 -0.19014521E-04 -0.13405234E-04
 -0.78328820E-05 -0.23354869E-05  0.30503415E-05  0.82896256E-05  0.13349222E-04
  0.18198007E-04  0.22807043E-04  0.27149730E-04  0.31201928E-04  0.34942074E-04
  0.38351264E-04  0.41413327E-04  0.44114867E-04  0.46445298E-04  0.48396849E-04
  0.49964551E-04  0.51146212E-04  0.51942363E-04  0.52356196E-04  0.52393481E-04
  0.52062465E-04  0.51373761E-04  0.50340224E-04  0.48976805E-04  0.47300406E-04
  0.45329719E-04  0.43085055E-04  0.40588169E-04  0.37862079E-04  0.34930876E-04
  0.31819538E-04  0.28553736E-04  0.25159640E-04  0.21663733E-04  0.18092615E-04
  0.14472823E-04  0.10830647E-04  0.71919532E-05  0.35820181E-05  0.25364774E-07
 -0.34543882E-05 -0.68346700E-05 -0.10094090E-04 -0.13212560E-04 -0.16171404E-04
 -0.18953454E-04 -0.21543140E-04 -0.23926560E-04 -0.26091539E-04 -0.28027676E-04
 -0.29726380E-04 -0.31180889E-04 -0.32386274E-04 -0.33339438E-04 -0.34039099E-04
 -0.34485754E-04 -0.34681645E-04 -0.34630701E-04 -0.34338479E-04 -0.33812089E-04
 -0.33060113E-04 -0.32092514E-04 -0.30920539E-04 -0.29556617E-04 -0.28014244E-04
 -0.26307869E-04 -0.24452777E-04 -0.22464966E-04 -0.20361017E-04 -0.18157974E-04
 -0.15873214E-04 -0.13524320E-04 -0.11128956E-04 -0.87047462E-05 -0.62691496E-05
 -0.38393470E-05 -0.14321266E-05  0.93622261E-06  0.32500138E-05  0.54942573E-05
  0.76547500E-05  0.97181573E-05  0.11672087E-04  0.13505155E-04  0.15207046E-04
  0.16768558E-04  0.18181648E-04  0.19439463E-04  0.20536359E-04  0.21467924E-04
  0.22230974E-04  0.22823557E-04  0.23244942E-04  0.23495594E-04  0.23577152E-04
  0.23492394E-04  0.23245193E-04  0.22840469E-04  0.22284138E-04  0.21583046E-04
  0.20744908E-04  0.19778234E-04  0.18692260E-04  0.17496863E-04  0.16202488E-04
  0.14820059E-04  0.13360896E-04  0.11836632E-04  0.10259124E-04  0.86403674E-05
  0.69924103E-05  0.53272709E-05  0.36568544E-05  0.19928732E-05  0.34676967E-06
 -0.12703568E-05 -0.28478202E-05 -0.43754136E-05 -0.58434700E-05 -0.72429189E-05
 -0.85653371E-05 -0.98029947E-05 -0.10948895E-04 -0.11996809E-04 -0.12941304E-04
 -0.13777763E-04 -0.14502408E-04 -0.15112303E-04 -0.15605360E-04 -0.15980342E-04
 -0.16236849E-04 -0.16375311E-04 -0.16396966E-04 -0.16303834E-04 -0.16098696E-04
 -0.15785054E-04 -0.15367096E-04 -0.14849653E-04 -0.14238158E-04 -0.13538591E-04
 -0.12757433E-04 -0.11901609E-04 -0.10978433E-04 -0.99955530E-05 -0.89608866E-05
 -0.78825666E-05 -0.67688788E-05 -0.56282022E-05 -0.44689501E-05 -0.32995110E-05
 -0.21281915E-05 -0.96316069E-06  0.18760408E-06  0.13163682E-05  0.24156892E-05
  0.34784621E-05  0.44979629E-05  0.54678879E-05  0.63823894E-05  0.72361077E-05
  0.80241997E-05  0.87423628E-05  0.93868548E-05  0.99545098E-05  0.10442750E-04
  0.10849592E-04  0.11173651E-04  0.11414139E-04  0.11570861E-04  0.11644205E-04
  0.11635127E-04  0.11545137E-04  0.11376279E-04  0.11131107E-04  0.10812656E-04
  0.10424416E-04  0.99702994E-05  0.94546046E-05  0.88819818E-05  0.82573939E-05
  0.75860770E-05  0.68734995E-05  0.61253206E-05  0.53473476E-05  0.45454939E-05
  0.37257357E-05  0.28940704E-05  0.20564745E-05  0.12188629E-05  0.38704930E-06
 -0.43329241E-06 -0.12366646E-05 -0.20177808E-05 -0.27715988E-05 -0.34933507E-05
 -0.41785716E-05 -0.48231251E-05 -0.54232261E-05 -0.59754609E-05 -0.64768045E-05
 -0.69246351E-05 -0.73167449E-05 -0.76513490E-05 -0.79270897E-05 -0.81430394E-05
 -0.82986996E-05 -0.83939968E-05 -0.84292765E-05 -0.84052932E-05 -0.83231988E-05
 -0.81845277E-05 -0.79911802E-05 -0.77454031E-05 -0.74497686E-05 -0.71071510E-05
 -0.67207021E-05 -0.62938245E-05 -0.58301445E-05 -0.53334834E-05 -0.48078273E-05
 -0.42572978E-05 -0.36861206E-05 -0.30985953E-05 -0.24990640E-05 -0.18918812E-05
 -0.12813832E-05 -0.67185854E-06 -0.67519513E-07  0.52752593E-06  0.11093007E-05
  0.16739838E-05  0.22179342E-05  0.27377130E-05  0.32301040E-05  0.36921320E-05
  0.41210797E-05  0.45145020E-05  0.48702388E-05  0.51864251E-05  0.54614993E-05
  0.56942087E-05  0.58836138E-05  0.60290895E-05  0.61303240E-05  0.61873168E-05
  0.62003730E-05  0.61700967E-05  0.60973822E-05  0.59834028E-05  0.58295990E-05
  0.56376635E-05  0.54095263E-05  0.51473372E-05  0.48534477E-05  0.45303918E-05
  0.41808652E-05  0.38077047E-05  0.34138660E-05  0.30024018E-05  0.25764391E-05
  0.21391564E-05  0.16937613E-05  0.12434676E-05  0.79147303E-06  0.34093790E-06
 -0.10503660E-06 -0.54342862E-06 -0.97131531E-06 -0.13858914E-05 -0.17844869E-05
 -0.21645831E-05 -0.25238280E-05 -0.28600495E-05 -0.31712682E-05 -0.34557075E-05
 -0.37118034E-05 -0.39382112E-05 -0.41338124E-05 -0.42977180E-05 -0.44292720E-05
 -0.45280517E-05 -0.45938676E-05 -0.46267609E-05 -0.46269996E-05 -0.45950736E-05
 -0.45316877E-05 -0.44377537E-05 -0.43143806E-05 -0.41628647E-05 -0.39846770E-05
 -0.37814511E-05 -0.35549693E-05 -0.33071480E-05 -0.30400224E-05 -0.27557311E-05
 -0.24564993E-05 -0.21446228E-05 -0.18224503E-05 -0.14923673E-05 -0.11567783E-05
 -0.81809051E-06 -0.47869713E-06 -0.14096078E-06  0.19280210E-06  0.52033660E-06
  0.83946399E-06  0.11480956E-05  0.14442460E-05  0.17260450E-05  0.19917490E-05
  0.22397511E-05  0.24685902E-05  0.26769590E-05  0.28637105E-05  0.30278641E-05
  0.31686095E-05  0.32853098E-05  0.33775038E-05  0.34449063E-05  0.34874074E-05
  0.35050712E-05  0.34981322E-05  0.34669920E-05  0.34122135E-05  0.33345149E-05
  0.32347627E-05  0.31139631E-05  0.29732539E-05  0.28138938E-05  0.26372527E-05
  0.24448005E-05  0.22380953E-05  0.20187716E-05  0.17885280E-05  0.15491145E-05
  0.13023196E-05  0.10499576E-05  0.79385569E-06  0.53584095E-06  0.27772806E-06
  0.21306824E-07 -0.23166986E-06 -0.47949749E-06 -0.72053109E-06 -0.95319570E-06
 -0.11759962E-05 -0.13875267E-05 -0.15864787E-05 -0.17716489E-05 -0.19419460E-05
 -0.20963969E-05 -0.22341514E-05 -0.23544863E-05 -0.24568093E-05 -0.25406605E-05
 -0.26057140E-05 -0.26517785E-05 -0.26787965E-05 -0.26868430E-05 -0.26761230E-05
 -0.26469685E-05 -0.25998343E-05 -0.25352932E-05 -0.24540306E-05 -0.23568381E-05
 -0.22446062E-05 -0.21183178E-05 -0.19790390E-05 -0.18279115E-05 -0.16661432E-05
 -0.14949992E-05 -0.13157921E-05 -0.11298727E-05 -0.93861955E-06 -0.74342963E-06
 -0.54570818E-06 -0.34685894E-06 -0.14827455E-06  0.48672974E-07  0.24264137E-06
  0.43232703E-06  0.61647344E-06  0.79387923E-06  0.96340572E-06  0.11239839E-05
  0.12746210E-05  0.14144060E-05  0.15425153E-05  0.16582168E-05  0.17608739E-05
  0.18499488E-05  0.19250044E-05  0.19857067E-05  0.20318249E-05  0.20632324E-05
  0.20799058E-05  0.20819239E-05  0.20694656E-05  0.20428077E-05  0.20023214E-05
  0.19484687E-05  0.18817977E-05  0.18029381E-05  0.17125955E-05  0.16115457E-05
  0.15006284E-05  0.13807403E-05  0.12528287E-05  0.11178838E-05  0.97693163E-06
  0.83102640E-06  0.68124281E-06  0.52866846E-06  0.37439613E-06  0.21951618E-06
  0.65109099E-07 -0.87761871E-07 -0.23805782E-06 -0.38477101E-06 -0.52693147E-06
 -0.66361314E-06 -0.79393974E-06 -0.91709016E-06 -0.10323034E-05 -0.11388831E-05
 -0.12362014E-05 -0.13237026E-05 -0.14009058E-05 -0.14674075E-05 -0.15228833E-05
 -0.15670891E-05 -0.15998618E-05 -0.16211194E-05 -0.16308605E-05 -0.16291633E-05
 -0.16161842E-05 -0.15921555E-05 -0.15573829E-05 -0.15122425E-05 -0.14571774E-05
 -0.13926937E-05 -0.13193561E-05 -0.12377836E-05 -0.11486441E-05 -0.10526498E-05
 -0.95055102E-06 -0.84313098E-06 -0.73119993E-06 -0.61558916E-06 -0.49714504E-06
 -0.37672296E-06 -0.25518134E-06 -0.13337570E-06 -0.12152706E-07  0.10765546E-06
  0.22523673E-06  0.33980447E-06  0.45060260E-06  0.55691044E-06  0.65804723E-06
  0.75337636E-06  0.84230916E-06  0.92430845E-06  0.99889154E-06  0.10656329E-05
  0.11241666E-05  0.11741876E-05  0.12154537E-05  0.12477860E-05  0.12710697E-05
  0.12852537E-05  0.12903506E-05  0.12864357E-05  0.12736455E-05  0.12521762E-05
  0.12222817E-05  0.11842711E-05  0.11385056E-05  0.10853958E-05  0.10253982E-05
  0.95901122E-06  0.88677143E-06  0.80924945E-06  0.72704552E-06  0.64078501E-06
  0.55111382E-06  0.45869367E-06  0.36419734E-06  0.26830391E-06  0.17169396E-06
 atomic pseudo charge-density
  0.60000000E+01  0.59917697E+01  0.59672172E+01  0.59267518E+01  0.58710374E+01
  0.58009653E+01  0.57176204E+01  0.56222406E+01  0.55161739E+01  0.54008350E+01
  0.52776629E+01  0.51480833E+01  0.50134750E+01  0.48751428E+01  0.47342967E+01
  0.45920372E+01  0.44493463E+01  0.43070841E+01  0.41659895E+01  0.40266844E+01
  0.38896806E+01  0.37553886E+01  0.36241273E+01  0.34961348E+01  0.33715784E+01
  0.32505652E+01  0.31331510E+01  0.30193499E+01  0.29091416E+01  0.28024787E+01
  0.26992925E+01  0.25994990E+01  0.25030024E+01  0.24096996E+01  0.23194830E+01
  0.22322426E+01  0.21478688E+01  0.20662532E+01  0.19872902E+01  0.19108779E+01
  0.18369183E+01  0.17653182E+01  0.16959894E+01  0.16288484E+01  0.15638167E+01
  0.15008210E+01  0.14397922E+01  0.13806660E+01  0.13233823E+01  0.12678851E+01
  0.12141219E+01  0.11620438E+01  0.11116049E+01  0.10627622E+01  0.10154753E+01
  0.96970621E+00  0.92541880E+00  0.88257889E+00  0.84115390E+00  0.80111266E+00
  0.76242522E+00  0.72506269E+00  0.68899708E+00  0.65420118E+00  0.62064842E+00
  0.58831278E+00  0.55716868E+00  0.52719092E+00  0.49835458E+00  0.47063500E+00
  0.44400769E+00  0.41844831E+00  0.39393265E+00  0.37043657E+00  0.34793601E+00
  0.32640695E+00  0.30582543E+00  0.28616752E+00  0.26740932E+00  0.24952699E+00
  0.23249671E+00  0.21629474E+00  0.20089738E+00  0.18628102E+00  0.17242210E+00
  0.15929721E+00  0.14688301E+00  0.13515633E+00  0.12409411E+00  0.11367349E+00
  0.10387177E+00  0.94666459E-01  0.86035282E-01  0.77956203E-01  0.70407440E-01
  0.63367483E-01  0.56815111E-01  0.50729412E-01  0.45089796E-01  0.39876014E-01
  0.35068172E-01  0.30646747E-01  0.26592601E-01  0.22886997E-01  0.19511610E-01
  0.16448537E-01  0.13680316E-01  0.11189928E-01  0.89608142E-02  0.69768796E-02
  0.52225050E-02  0.36825520E-02  0.23423701E-02  0.11878020E-02  0.20518763E-03
 -0.61863211E-03 -0.12963130E-02 -0.18400061E-02 -0.22613570E-02 -0.25715066E-02
 -0.27810921E-02 -0.29002495E-02 -0.29386168E-02 -0.29053382E-02 -0.28090686E-02
 -0.26579802E-02 -0.24597684E-02 -0.22216596E-02 -0.19504196E-02 -0.16523619E-02
 -0.13333579E-02 -0.99884689E-03 -0.65384708E-03 -0.30296688E-03  0.49582938E-04
  0.39997684E-03  0.74476155E-03  0.10808427E-02  0.14054712E-02  0.17162292E-02
  0.20110157E-02  0.22880321E-02  0.25457677E-02  0.27829846E-02  0.29987031E-02
  0.31921865E-02  0.33629264E-02  0.35106275E-02  0.36351933E-02  0.37367108E-02
  0.38154368E-02  0.38717827E-02  0.39063013E-02  0.39196723E-02  0.39126896E-02
  0.38862475E-02  0.38413283E-02  0.37789900E-02  0.37003543E-02  0.36065951E-02
  0.34989277E-02  0.33785981E-02  0.32468729E-02  0.31050302E-02  0.29543504E-02
  0.27961079E-02  0.26315631E-02  0.24619554E-02  0.22884960E-02  0.21123622E-02
  0.19346915E-02  0.17565765E-02  0.15790608E-02  0.14031344E-02  0.12297306E-02
  0.10597231E-02  0.89392360E-03  0.73307962E-03  0.57787333E-03  0.42892048E-03
  0.28676984E-03  0.15190307E-03  0.24735083E-04 -0.94385365E-04 -0.20517461E-03
 -0.30741271E-03 -0.40094181E-03 -0.48566414E-03 -0.56153982E-03 -0.62858435E-03
 -0.68686601E-03 -0.73650293E-03 -0.77766009E-03 -0.81054616E-03 -0.83541018E-03
 -0.85253825E-03 -0.86225002E-03 -0.86489524E-03 -0.86085027E-03 -0.85051451E-03
 -0.83430697E-03 -0.81266276E-03 -0.78602971E-03 -0.75486506E-03 -0.71963217E-03
 -0.68079745E-03 -0.63882728E-03 -0.59418517E-03 -0.54732897E-03 -0.49870834E-03
 -0.44876225E-03 -0.39791676E-03 -0.34658292E-03 -0.29515486E-03 -0.24400807E-03
 -0.19349788E-03 -0.14395808E-03 -0.95699795E-04 -0.49010489E-04 -0.41532063E-05
  0.38634036E-04  0.79138669E-04  0.11717381E-03  0.15257832E-03  0.18521676E-03
  0.21497906E-03  0.24178021E-03  0.26555964E-03  0.28628061E-03  0.30392937E-03
  0.31851428E-03  0.33006478E-03  0.33863028E-03  0.34427901E-03  0.34709670E-03
  0.34718530E-03  0.34466161E-03  0.33965582E-03  0.33231011E-03  0.32277719E-03
  0.31121877E-03  0.29780415E-03  0.28270873E-03  0.26611254E-03  0.24819885E-03
  0.22915277E-03  0.20915989E-03  0.18840504E-03  0.16707097E-03  0.14533724E-03
  0.12337906E-03  0.10136629E-03  0.79462439E-04  0.57823813E-04  0.36598684E-04
  0.15926584E-04 -0.40623278E-05 -0.23247816E-04 -0.41520026E-04 -0.58779854E-04
 -0.74939237E-04 -0.89921345E-04 -0.10366071E-03 -0.11610324E-03 -0.12720619E-03
 -0.13693806E-03 -0.14527836E-03 -0.15221738E-03 -0.15775584E-03 -0.16190456E-03
 -0.16468394E-03 -0.16612354E-03 -0.16626149E-03 -0.16514395E-03 -0.16282450E-03
 -0.15936346E-03 -0.15482725E-03 -0.14928772E-03 -0.14282142E-03 -0.13550892E-03
 -0.12743406E-03 -0.11868331E-03 -0.10934498E-03 -0.99508591E-04 -0.89264183E-04
 -0.78701638E-04 -0.67910066E-04 -0.56977184E-04 -0.45988746E-04 -0.35027991E-04
 -0.24175137E-04 -0.13506910E-04 -0.30961064E-05  0.69887887E-05  0.16683955E-04
  0.25930536E-04  0.34674901E-04  0.42868853E-04  0.50469801E-04  0.57440882E-04
  0.63751037E-04  0.69375048E-04  0.74293532E-04  0.78492890E-04  0.81965220E-04
  0.84708193E-04  0.86724892E-04  0.88023615E-04  0.88617653E-04  0.88525038E-04
  0.87768257E-04  0.86373956E-04  0.84372616E-04  0.81798211E-04  0.78687857E-04
  0.75081443E-04  0.71021260E-04  0.66551615E-04  0.61718456E-04  0.56568984E-04
  0.51151272E-04  0.45513892E-04  0.39705547E-04  0.33774715E-04  0.27769300E-04
  0.21736306E-04  0.15721517E-04  0.97692092E-05  0.39218648E-05 -0.17800770E-05
 -0.72984563E-05 -0.12597602E-04 -0.17644517E-04 -0.22409042E-04 -0.26863991E-04
 -0.30985258E-04 -0.34751912E-04 -0.38146246E-04 -0.41153821E-04 -0.43763472E-04
 -0.45967296E-04 -0.47760617E-04 -0.49141924E-04 -0.50112793E-04 -0.50677789E-04
 -0.50844341E-04 -0.50622615E-04 -0.50025353E-04 -0.49067713E-04 -0.47767086E-04
 -0.46142907E-04 -0.44216457E-04 -0.42010650E-04 -0.39549825E-04 -0.36859525E-04
 -0.33966277E-04 -0.30897370E-04 -0.27680631E-04 -0.24344212E-04 -0.20916370E-04
 -0.17425257E-04 -0.13898717E-04 -0.10364091E-04 -0.68480298E-05 -0.33763148E-05
  0.26304856E-07  0.33362674E-05  0.65313388E-05  0.95907407E-05  0.12495263E-04
  0.15227365E-04  0.17771255E-04  0.20112964E-04  0.22240398E-04  0.24143376E-04
  0.25813654E-04  0.27244937E-04  0.28432868E-04  0.29375014E-04  0.30070830E-04
  0.30521614E-04  0.30730449E-04  0.30702132E-04  0.30443097E-04  0.29961320E-04
  0.29266224E-04  0.28368569E-04  0.27280341E-04  0.26014627E-04  0.24585495E-04
  0.23007862E-04  0.21297361E-04  0.19470212E-04  0.17543080E-04  0.15532949E-04
  0.13456981E-04  0.11332390E-04  0.91763113E-05  0.70056765E-05  0.48370957E-05
  0.26867420E-05  0.57024285E-06 -0.14974207E-05 -0.35020088E-05 -0.54301090E-05
 -0.72692146E-05 -0.90077940E-05 -0.10635352E-04 -0.12142480E-04 -0.13520900E-04
 -0.14763496E-04 -0.15864340E-04 -0.16818703E-04 -0.17623063E-04 -0.18275098E-04
 -0.18773677E-04 -0.19118838E-04 -0.19311756E-04 -0.19354711E-04 -0.19251040E-04
 -0.19005089E-04 -0.18622155E-04 -0.18108424E-04 -0.17470903E-04 -0.16717349E-04
 -0.15856194E-04 -0.14896465E-04 -0.13847704E-04 -0.12719883E-04 -0.11523324E-04
 -0.10268609E-04 -0.89664999E-05 -0.76278537E-05 -0.62635382E-05 -0.48843531E-05
 -0.35009517E-05 -0.21237650E-05 -0.76293070E-06  0.57177516E-06  0.18710017E-05
  0.31258821E-05  0.43280879E-05  0.54698774E-05  0.65441394E-05  0.75444305E-05
  0.84650074E-05  0.93008524E-05  0.10047694E-04  0.10702020E-04  0.11261087E-04
  0.11722922E-04  0.12086319E-04  0.12350831E-04  0.12516752E-04  0.12585105E-04
  0.12557609E-04  0.12436656E-04  0.12225278E-04  0.11927104E-04  0.11546327E-04
  0.11087657E-04  0.10556270E-04  0.99577676E-05  0.92981198E-05  0.85836146E-05
  0.78208043E-05  0.70164510E-05  0.61774721E-05  0.53108859E-05  0.44237573E-05
  0.35231450E-05  0.26160494E-05  0.17093622E-05  0.80981871E-06 -0.76049147E-07
 -0.94195573E-06 -0.17819027E-05 -0.25902168E-05 -0.33615844E-05 -0.40910823E-05
 -0.47742058E-05 -0.54068922E-05 -0.59855412E-05 -0.65070307E-05 -0.69687296E-05
 -0.73685065E-05 -0.77047337E-05 -0.79762889E-05 -0.81825517E-05 -0.83233976E-05
 -0.83991879E-05 -0.84107565E-05 -0.83593934E-05 -0.82468255E-05 -0.80751939E-05
 -0.78470300E-05 -0.75652277E-05 -0.72330147E-05 -0.68539217E-05 -0.64317496E-05
 -0.59705359E-05 -0.54745204E-05 -0.49481089E-05 -0.43958384E-05 -0.38223400E-05
 -0.32323036E-05 -0.26304421E-05 -0.20214561E-05 -0.14100000E-05 -0.80064885E-06
 -0.19786619E-06  0.39402590E-06  0.97087572E-06  0.15287287E-05  0.20638523E-05
  0.25727586E-05  0.30522246E-05  0.34993107E-05  0.39113759E-05  0.42860909E-05
  0.46214491E-05  0.49157740E-05  0.51677252E-05  0.53763009E-05  0.55408381E-05
  0.56610112E-05  0.57368264E-05  0.57686158E-05  0.57570279E-05  0.57030162E-05
  0.56078264E-05  0.54729812E-05  0.53002635E-05  0.50916983E-05  0.48495328E-05
  0.45762156E-05  0.42743750E-05  0.39467957E-05  0.35963961E-05  0.32262036E-05
  0.28393307E-05  0.24389509E-05  0.20282737E-05  0.16105211E-05  0.11889036E-05
  0.76659702E-06  0.34672025E-06 -0.67686484E-07 -0.47368216E-06 -0.86844441E-06
 -0.12492877E-05 -0.16136804E-05 -0.19592596E-05 -0.22838460E-05 -0.25854551E-05
 -0.28623088E-05 -0.31128435E-05 -0.33357179E-05 -0.35298184E-05 -0.36942626E-05
 -0.38284013E-05 -0.39318189E-05 -0.40043318E-05 -0.40459855E-05 -0.40570498E-05
 -0.40380125E-05 -0.39895720E-05 -0.39126279E-05 -0.38082709E-05 -0.36777714E-05
 -0.35225667E-05 -0.33442476E-05 -0.31445437E-05 -0.29253090E-05 -0.26885052E-05
 -0.24361862E-05 -0.21704813E-05 -0.18935783E-05 -0.16077067E-05 -0.13151207E-05
 -0.10180825E-05 -0.71884558E-06 -0.41963898E-06 -0.12265116E-06  0.16998488E-06
  0.45620606E-06  0.73403291E-06  0.10015824E-05  0.12570796E-05  0.14988691E-05
  0.17254242E-05  0.19353562E-05  0.21274216E-05  0.23005287E-05  0.24537429E-05
  0.25862904E-05  0.26975611E-05  0.27871104E-05  0.28546589E-05  0.29000921E-05
  0.29234583E-05  0.29249648E-05  0.29049747E-05  0.28640005E-05  0.28026986E-05
  0.27218618E-05  0.26224111E-05  0.25053872E-05  0.23719405E-05  0.22233214E-05
  0.20608692E-05  0.18860011E-05  0.17002008E-05  0.15050063E-05  0.13019982E-05
  0.10927874E-05  0.87900310E-06  0.66228071E-06  0.44424989E-06  0.22652292E-06
  0.10683334E-07 -0.20172498E-06 -0.40920831E-06 -0.61033306E-06 -0.80373511E-06
 -0.98812853E-06 -0.11623136E-05 -0.13251840E-05 -0.14757333E-05 -0.16130607E-05
 -0.17363759E-05 -0.18450026E-05 -0.19383820E-05 -0.20160749E-05 -0.20777626E-05
 -0.21232480E-05 -0.21524543E-05 -0.21654241E-05 -0.21623172E-05 -0.21434074E-05
 -0.21090792E-05 -0.20598227E-05 -0.19962288E-05 -0.19189832E-05 -0.18288603E-05
 -0.17267158E-05 -0.16134796E-05 -0.14901476E-05 -0.13577742E-05 -0.12174630E-05
 -0.10703584E-05 -0.91763700E-06 -0.76049814E-06 -0.60015524E-06 -0.43782667E-06
 -0.27472693E-06 -0.11205792E-06  0.48999541E-07  0.20729393E-06  0.36171092E-06
  0.51118088E-06  0.65468590E-06  0.79126646E-06  0.92002743E-06  0.10401437E-05
  0.11508649E-05  0.12515201E-05  0.13415212E-05  0.14203661E-05  0.14876410E-05
  0.15430223E-05  0.15862775E-05  0.16172656E-05  0.16359369E-05  0.16423319E-05
  0.16365799E-05  0.16188966E-05  0.15895816E-05  0.15490147E-05  0.14976525E-05
  0.14360233E-05  0.13647232E-05  0.12844098E-05  0.11957975E-05  0.10996510E-05
  0.99677916E-06  0.88802869E-06  0.77427729E-06  0.65642694E-06  0.53539706E-06
  0.41211753E-06  0.28752186E-06  0.16254034E-06  0.38093355E-07 -0.84915207E-07
 -0.20560425E-06 -0.32312157E-06 -0.43664969E-06 -0.54541126E-06 -0.64867425E-06
 -0.74575661E-06 -0.83603058E-06 -0.91892652E-06 -0.99393630E-06 -0.10606162E-05
 -0.11185891E-05 -0.11675468E-05 -0.12072507E-05 -0.12375333E-05 -0.12582981E-05
 -0.12695192E-05 -0.12712411E-05 -0.12635771E-05 -0.12467076E-05 -0.12208780E-05
 -0.11863961E-05 -0.11436289E-05 -0.10929993E-05 -0.10349823E-05 -0.97010076E-06
 -0.89892108E-06 -0.82204844E-06 -0.74012191E-06 -0.65380937E-06 -0.56380225E-06
 -0.47081018E-06 -0.37555560E-06 -0.27876829E-06 -0.18117995E-06 -0.83518834E-07
  0.13495516E-07  0.10915745E-06  0.20278019E-06  0.29370059E-06  0.38128375E-06
  0.46492726E-06  0.54406522E-06  0.61817194E-06  0.68676527E-06  0.74940963E-06
  0.80571859E-06  0.85535710E-06  0.89804333E-06  0.93355006E-06  0.96170571E-06
  0.98239487E-06  0.99555849E-06  0.10011936E-05  0.99935271E-06  0.99014263E-06
  0.97372315E-06  0.95030513E-06  0.92014840E-06  0.88355920E-06  0.84088742E-06
  0.79252345E-06  0.73889485E-06  0.68046277E-06  0.61771811E-06  0.55117761E-06
  0.48137968E-06  0.40888021E-06  0.33424829E-06  0.25806180E-06  0.18090312E-06
  0.10335472E-06  0.25994923E-07 -0.50606319E-07 -0.12589154E-06 -0.19931973E-06
 -0.27037007E-06 -0.33854560E-06 -0.40337657E-06 -0.46442356E-06 -0.52128042E-06
 -0.57357682E-06 -0.62098056E-06 -0.66319962E-06 -0.69998379E-06 -0.73112604E-06
 -0.75646357E-06 -0.77587843E-06 -0.78929791E-06 -0.79669456E-06 -0.79808578E-06
 -0.79353326E-06 -0.78314195E-06 -0.76705878E-06 -0.74547110E-06 -0.71860479E-06
 -0.68672218E-06 -0.65011965E-06 -0.60912506E-06 -0.56409491E-06 -0.51541145E-06
 -0.46347946E-06 -0.40872305E-06 -0.35158228E-06 -0.29250970E-06 -0.23196686E-06
 -0.17042079E-06 -0.10834048E-06 -0.46193379E-07  0.15558061E-07  0.76459747E-07
  0.13606921E-06  0.19395877E-06  0.24971850E-06  0.30295909E-06  0.35331450E-06
  0.40044438E-06  0.44403631E-06  0.48380780E-06  0.51950803E-06  0.55091936E-06
  0.57785854E-06  0.60017770E-06  0.61776501E-06  0.63054511E-06  0.63847926E-06
  0.64156516E-06  0.63983662E-06  0.63336282E-06  0.62224741E-06  0.60662739E-06
  0.58667161E-06  0.56257925E-06  0.53457792E-06  0.50292166E-06  0.46788878E-06
  0.42977944E-06  0.38891323E-06  0.34562654E-06  0.30026988E-06  0.25320508E-06
  0.20480252E-06  0.15543820E-06  0.10549096E-06  0.55339584E-07  0.53599765E-08
 -0.44077579E-07 -0.92611123E-07 -0.13988961E-06 -0.18557542E-06 -0.22934666E-06
 -0.27089946E-06 -0.30994994E-06 -0.34623618E-06 -0.37951983E-06 -0.40958770E-06
 -0.43625296E-06 -0.45935634E-06 -0.47876688E-06 -0.49438268E-06 -0.50613126E-06
 -0.51396979E-06 -0.51788505E-06 -0.51789321E-06 -0.51403935E-06 -0.50639680E-06
 -0.49506627E-06 -0.48017476E-06 -0.46187437E-06 -0.44034081E-06 -0.41577187E-06
 -0.38838566E-06 -0.35841877E-06 -0.32612429E-06 -0.29176973E-06 -0.25563487E-06
 -0.21800952E-06 -0.17919128E-06 -0.13948318E-06 -0.99191414E-07 -0.58622979E-07
 -0.18083412E-07  0.22125488E-07  0.61707860E-07  0.10037592E-06  0.13785199E-06
  0.17387049E-06  0.20817975E-06  0.24054371E-06  0.27074355E-06  0.29857906E-06
  0.32386997E-06  0.34645701E-06  0.36620290E-06  0.38299311E-06  0.39673642E-06
  0.40736538E-06  0.41483649E-06  0.41913028E-06  0.42025115E-06  0.41822711E-06
  0.41310923E-06  0.40497107E-06  0.39390780E-06  0.38003530E-06  0.36348903E-06
  0.34442278E-06  0.32300736E-06  0.29942910E-06  0.27388829E-06  0.24659751E-06
  0.21777994E-06  0.18766758E-06  0.15649936E-06  0.12451936E-06  0.91974897E-07
  0.59114632E-07  0.26186739E-07 -0.65629541E-08 -0.38892763E-07 -0.70566895E-07
 -0.10135714E-06 -0.13104447E-06 -0.15942057E-06 -0.18628927E-06 -0.21146784E-06
 -0.23478821E-06 -0.25609805E-06 -0.27526171E-06 -0.29216107E-06 -0.30669615E-06
 -0.31878572E-06 -0.32836763E-06 -0.33539908E-06 -0.33985669E-06 -0.34173651E-06
 -0.34105373E-06 -0.33784246E-06 -0.33215515E-06 -0.32406206E-06 -0.31365052E-06
 -0.30102408E-06 -0.28630154E-06 -0.26961591E-06 -0.25111328E-06 -0.23095154E-06
 -0.20929910E-06 -0.18633353E-06 -0.16224012E-06 -0.13721041E-06 -0.11144073E-06
 -0.85130650E-07 -0.58481506E-07 -0.31694848E-07 -0.49709664E-08  0.21492584E-07
  0.47502415E-07  0.72870692E-07  0.97416459E-07  0.12096690E-06  0.14335854E-06
  0.16443832E-06  0.18406462E-06  0.20210822E-06  0.21845304E-06  0.23299691E-06
  0.24565214E-06  0.25634600E-06  0.26502111E-06  0.27163567E-06  0.27616359E-06
  0.27859453E-06  0.27893376E-06  0.27720197E-06  0.27343494E-06  0.26768310E-06
  0.26001099E-06  0.25049662E-06  0.23923075E-06  0.22631608E-06  0.21186633E-06
  0.19600531E-06  0.17886587E-06  0.16058884E-06  0.14132187E-06  0.12121828E-06
  0.10043587E-06  0.79135717E-07  0.57480909E-07  0.35635362E-07  0.13762581E-07
 -0.79755338E-08 -0.29419863E-07 -0.50415212E-07 -0.70811407E-07 -0.90464348E-07
 -0.10923700E-06 -0.12700033E-06 -0.14363415E-06 -0.15902794E-06 -0.17308150E-06
 -0.18570564E-06 -0.19682264E-06 -0.20636676E-06 -0.21428457E-06 -0.22053517E-06
   15.1178079086314      T
 Non local Part
           2           2   1.35055464917301     
   21.4407270972324        20.2399097132121        20.2399097132121     
   19.0956678408239     
 Reciprocal Space Part
  0.00000000E+00 -0.17274696E+00 -0.68721635E+00 -0.15321405E+01 -0.26888959E+01
 -0.41317378E+01 -0.58281293E+01 -0.77391658E+01 -0.98200937E+01 -0.12020926E+02
 -0.14287149E+02 -0.16560521E+02 -0.18779961E+02 -0.20882509E+02 -0.22804370E+02
 -0.24482011E+02 -0.25853311E+02 -0.26858741E+02 -0.27442562E+02 -0.27554011E+02
 -0.27148464E+02 -0.26188548E+02 -0.24645165E+02 -0.22498425E+02 -0.19738444E+02
 -0.16365987E+02 -0.12392942E+02 -0.78425897E+01 -0.27496674E+01  0.28397982E+01
  0.88688905E+01  0.15270441E+02  0.21967902E+02  0.28876450E+02  0.35904297E+02
  0.42954198E+02  0.49925129E+02  0.56714098E+02  0.63218056E+02  0.69335875E+02
  0.74970341E+02  0.80030121E+02  0.84431661E+02  0.88100966E+02  0.90975222E+02
  0.93004211E+02  0.94151496E+02  0.94395324E+02  0.93729238E+02  0.92162372E+02
  0.89719413E+02  0.86440229E+02  0.82379168E+02  0.77604041E+02  0.72194799E+02
  0.66241953E+02  0.59844743E+02  0.53109131E+02  0.46145627E+02  0.39067037E+02
  0.31986150E+02  0.25013449E+02  0.18254877E+02  0.11809728E+02  0.57687007E+01
  0.21216909E+00 -0.47912964E+01 -0.91861175E+01 -0.12930585E+02 -0.15997402E+02
 -0.18373890E+02 -0.20061848E+02 -0.21077082E+02 -0.21448616E+02 -0.21217608E+02
 -0.20436013E+02 -0.19165014E+02 -0.17473280E+02 -0.15435094E+02 -0.13128399E+02
 -0.10632809E+02 -0.80276492E+01 -0.53900665E+01 -0.27932547E+01 -0.30484404E+00
  0.20145110E+01  0.41123149E+01  0.59451598E+01  0.74793830E+01  0.86914450E+01
  0.95680265E+01  0.10105851E+02  0.10311247E+02  0.10199471E+02  0.97938220E+01
  0.91245656E+01  0.82277269E+01  0.71437699E+01  0.59162162E+01  0.45902405E+01
 Real Space Part
  0.00000000E+00  0.36718983E+00  0.14662249E+01  0.32895160E+01  0.58244620E+01
  0.90535200E+01  0.12954305E+02  0.17499715E+02  0.22658087E+02  0.28393377E+02
  0.34665366E+02  0.41429896E+02  0.48639128E+02  0.56241822E+02  0.64183645E+02
  0.72407501E+02  0.80853873E+02  0.89461200E+02  0.98166255E+02  0.10690455E+03
  0.11561076E+03  0.12421913E+03  0.13266393E+03  0.14087991E+03  0.14880270E+03
  0.15636933E+03  0.16351863E+03  0.17019169E+03  0.17633229E+03  0.18188735E+03
  0.18680732E+03  0.19104657E+03  0.19456379E+03  0.19732232E+03  0.19929047E+03
  0.20044180E+03  0.20075540E+03  0.20021607E+03  0.19881452E+03  0.19654747E+03
  0.19341776E+03  0.18943435E+03  0.18461231E+03  0.17897275E+03  0.17254269E+03
  0.16535483E+03  0.15744738E+03  0.14886368E+03  0.13965190E+03  0.12986460E+03
  0.11955825E+03  0.10879272E+03  0.97630741E+02  0.86137226E+02  0.74378653E+02
  0.62422352E+02  0.50335773E+02  0.38185718E+02  0.26037559E+02  0.13954434E+02
  0.19964294E+01 -0.97802389E+01 -0.21324040E+02 -0.32588935E+02 -0.43535166E+02
 -0.54130047E+02 -0.64348990E+02 -0.74178251E+02 -0.83360399E+02 -0.90811130E+02
 -0.96423996E+02 -0.10024352E+03 -0.10232842E+03 -0.10275019E+03 -0.10159299E+03
 -0.98953605E+02 -0.94940992E+02 -0.89676135E+02 -0.83291616E+02 -0.75931069E+02
 -0.67748808E+02 -0.58909065E+02 -0.49585345E+02 -0.39959867E+02 -0.30222241E+02
 -0.20569206E+02 -0.11202879E+02 -0.23303571E+01  0.58378944E+01  0.13089081E+02
  0.19209424E+02  0.23985242E+02  0.27204873E+02  0.28659168E+02  0.28145406E+02
  0.25458242E+02  0.20401208E+02  0.13035420E+02  0.17331686E+01  0.64973819E-12
 Reciprocal Space Part
  0.00000000E+00  0.18004435E+00  0.71633708E+00  0.15974067E+01  0.28042990E+01
  0.43108244E+01  0.60839043E+01  0.80840158E+01  0.10265735E+02  0.12578375E+02
  0.14966721E+02  0.17371848E+02  0.19732036E+02  0.21983746E+02  0.24062678E+02
  0.25904880E+02  0.27447896E+02  0.28631945E+02  0.29401108E+02  0.29704501E+02
  0.29497411E+02  0.28742381E+02  0.27410205E+02  0.25480822E+02  0.22944078E+02
  0.19800331E+02  0.16060887E+02  0.11748239E+02  0.68960983E+01  0.15492048E+01
 -0.42370884E+01 -0.10397460E+02 -0.16857494E+02 -0.23534764E+02 -0.30340129E+02
 -0.37179203E+02 -0.43953991E+02 -0.50564643E+02 -0.56911308E+02 -0.62896038E+02
 -0.68424708E+02 -0.73408907E+02 -0.77767753E+02 -0.81429598E+02 -0.84333572E+02
 -0.86430931E+02 -0.87686174E+02 -0.88077904E+02 -0.87599394E+02 -0.86258857E+02
 -0.84079395E+02 -0.81098632E+02 -0.77368035E+02 -0.72951928E+02 -0.67926226E+02
 -0.62376915E+02 -0.56398309E+02 -0.50091121E+02 -0.43560404E+02 -0.36913395E+02
 -0.30257319E+02 -0.23697211E+02 -0.17333798E+02 -0.11261490E+02 -0.55665451E+01
 -0.32542124E+00  0.43966160E+01  0.85466199E+01  0.12084789E+02  0.14984979E+02
  0.17234892E+02  0.18835940E+02  0.19802798E+02  0.20162647E+02  0.19954158E+02
  0.19226209E+02  0.18036411E+02  0.16449457E+02  0.14535348E+02  0.12367546E+02
  0.10021098E+02  0.75707832E+01  0.50893286E+01  0.26457343E+01  0.30375473E+00
 -0.18794332E+01 -0.38543450E+01 -0.55800632E+01 -0.70248558E+01 -0.81665314E+01
 -0.89925288E+01 -0.94997483E+01 -0.96941379E+01 -0.95900541E+01 -0.92094234E+01
 -0.85807338E+01 -0.77378911E+01 -0.67189774E+01 -0.55649491E+01 -0.43183147E+01
 Real Space Part
  0.00000000E+00 -0.34112382E+00 -0.13621251E+01 -0.30559069E+01 -0.54106852E+01
 -0.84100556E+01 -0.12033086E+02 -0.16254438E+02 -0.21044506E+02 -0.26369595E+02
 -0.32192110E+02 -0.38470777E+02 -0.45160887E+02 -0.52214562E+02 -0.59581038E+02
 -0.67206981E+02 -0.75036806E+02 -0.83013027E+02 -0.91076622E+02 -0.99167403E+02
 -0.10722441E+03 -0.11518632E+03 -0.12299184E+03 -0.13058013E+03 -0.13789123E+03
 -0.14486650E+03 -0.15144898E+03 -0.15758388E+03 -0.16321893E+03 -0.16830483E+03
 -0.17279558E+03 -0.17664890E+03 -0.17982654E+03 -0.18229463E+03 -0.18402396E+03
 -0.18499026E+03 -0.18517442E+03 -0.18456270E+03 -0.18314687E+03 -0.18092437E+03
 -0.17789832E+03 -0.17407758E+03 -0.16947673E+03 -0.16411598E+03 -0.15802105E+03
 -0.15122299E+03 -0.14375793E+03 -0.13566684E+03 -0.12699513E+03 -0.11779232E+03
 -0.10811153E+03 -0.98009065E+02 -0.87543817E+02 -0.76776716E+02 -0.65770095E+02
 -0.54587045E+02 -0.43290716E+02 -0.31943606E+02 -0.20606822E+02 -0.93393286E+01
  0.18028177E+01  0.12767234E+02  0.23505973E+02  0.33976280E+02  0.44141329E+02
  0.53970959E+02  0.63442637E+02  0.72544033E+02  0.81033736E+02  0.87893235E+02
  0.93023566E+02  0.96467656E+02  0.98281721E+02  0.98533920E+02  0.97304259E+02
  0.94684534E+02  0.90777907E+02  0.85698771E+02  0.79572335E+02  0.72534116E+02
  0.64729582E+02  0.56313436E+02  0.47449008E+02  0.38307731E+02  0.29067895E+02
  0.19914404E+02  0.11037131E+02  0.26305428E+01 -0.51078087E+01 -0.11978262E+02
 -0.17780305E+02 -0.22313590E+02 -0.25379733E+02 -0.26782773E+02 -0.26332846E+02
 -0.23837687E+02 -0.19113414E+02 -0.12217741E+02 -0.16248153E+01 -0.60917303E-12
 Non local Part
           0           2   1.35055464917301     
   2.88432044689373        6.03602802455687        6.03602802455687     
   12.7294072225706     
 Reciprocal Space Part
  0.12626377E+02  0.12339317E+02  0.11483617E+02  0.10075601E+02  0.81420899E+01
  0.57198377E+01  0.28547516E+01 -0.39907187E+00 -0.39804811E+01 -0.78225446E+01
 -0.11853938E+02 -0.16000414E+02 -0.20186313E+02 -0.24336095E+02 -0.28375840E+02
 -0.32234703E+02 -0.35846276E+02 -0.39149836E+02 -0.42091450E+02 -0.44624918E+02
 -0.46712531E+02 -0.48325631E+02 -0.49444973E+02 -0.50060867E+02 -0.50173124E+02
 -0.49790794E+02 -0.48931710E+02 -0.47621865E+02 -0.45894626E+02 -0.43789814E+02
 -0.41352673E+02 -0.38632761E+02 -0.35682779E+02 -0.32557377E+02 -0.29311960E+02
 -0.26001526E+02 -0.22679553E+02 -0.19396975E+02 -0.16201246E+02 -0.13135529E+02
 -0.10238020E+02 -0.75414052E+01 -0.50724753E+01 -0.28518920E+01 -0.89410229E+00
  0.79259802E+00  0.22058636E+01  0.33489718E+01  0.42303821E+01  0.48631991E+01
  0.52645577E+01  0.54549489E+01  0.54575064E+01  0.52972747E+01  0.50004770E+01
  0.45938021E+01  0.41037279E+01  0.35558957E+01  0.29745497E+01  0.23820510E+01
  0.17984762E+01  0.12413040E+01  0.72519441E+00  0.26185912E+00 -0.13997802E+00
 -0.47453626E+00 -0.73885531E+00 -0.93260337E+00 -0.10578262E+01 -0.11186484E+01
 -0.11209382E+01 -0.10719492E+01 -0.97994968E+00 -0.85385272E+00 -0.70285707E+00
 -0.53610934E+00 -0.36239622E+00 -0.18987381E+00 -0.25840077E-01  0.12344572E+00
  0.25289430E+00  0.35866752E+00  0.43821061E+00  0.49023776E+00  0.51467490E+00
  0.51256456E+00  0.48593875E+00  0.43766616E+00  0.37128079E+00  0.29079904E+00
  0.20053234E+00  0.10490207E+00  0.82630815E-02 -0.85258567E-01 -0.17190894E+00
 -0.24842668E+00 -0.31213773E+00 -0.36102268E+00 -0.39375571E+00 -0.40971577E+00
 Real Space Part
 -0.10132091E+03 -0.10128510E+03 -0.10117763E+03 -0.10099841E+03 -0.10074728E+03
 -0.10042404E+03 -0.10002842E+03 -0.99560102E+02 -0.99018745E+02 -0.98403966E+02
 -0.97715365E+02 -0.96952530E+02 -0.96115054E+02 -0.95202541E+02 -0.94214624E+02
 -0.93150978E+02 -0.92011336E+02 -0.90795500E+02 -0.89503364E+02 -0.88134922E+02
 -0.86690291E+02 -0.85169721E+02 -0.83573618E+02 -0.81902553E+02 -0.80157283E+02
 -0.78338761E+02 -0.76448155E+02 -0.74486861E+02 -0.72456512E+02 -0.70358995E+02
 -0.68196460E+02 -0.65971327E+02 -0.63686300E+02 -0.61344370E+02 -0.58948821E+02
 -0.56503238E+02 -0.54011504E+02 -0.51477805E+02 -0.48906629E+02 -0.46302762E+02
 -0.43671283E+02 -0.41017563E+02 -0.38347252E+02 -0.35666271E+02 -0.32980801E+02
 -0.30297271E+02 -0.27622341E+02 -0.24962886E+02 -0.22325980E+02 -0.19718872E+02
 -0.17148969E+02 -0.14623810E+02 -0.12151043E+02 -0.97384012E+01 -0.73936740E+01
 -0.51246809E+01 -0.29392424E+01 -0.84515119E+00  0.11498581E+01  0.30381391E+01
  0.48121644E+01  0.64645570E+01  0.79881210E+01  0.93758729E+01  0.10621072E+02
  0.11717250E+02  0.12658222E+02  0.13437999E+02  0.14065753E+02  0.14602471E+02
  0.15056092E+02  0.15426883E+02  0.15715272E+02  0.15921923E+02  0.16047732E+02
  0.16093820E+02  0.16061532E+02  0.15952422E+02  0.15768247E+02  0.15510962E+02
  0.15182690E+02  0.14785728E+02  0.14322520E+02  0.13795633E+02  0.13207768E+02
  0.12561703E+02  0.11860324E+02  0.11106569E+02  0.10303441E+02  0.94539885E+01
  0.85612991E+01  0.76284698E+01  0.66586523E+01  0.56549649E+01  0.46207116E+01
  0.35584568E+01  0.24709099E+01  0.13826943E+01  0.16872616E+00  0.60360898E-13
 Reciprocal Space Part
  0.34788170E+01  0.35872445E+01  0.39102927E+01  0.44413079E+01  0.51693611E+01
  0.60794856E+01  0.71530011E+01  0.83679174E+01  0.96994079E+01  0.11120342E+02
  0.12601863E+02  0.14113999E+02  0.15626297E+02  0.17108450E+02  0.18530928E+02
  0.19865573E+02  0.21086165E+02  0.22168931E+02  0.23093000E+02  0.23840781E+02
  0.24398271E+02  0.24755271E+02  0.24905525E+02  0.24846761E+02  0.24580652E+02
  0.24112689E+02  0.23451974E+02  0.22610941E+02  0.21605014E+02  0.20452203E+02
  0.19172660E+02  0.17788203E+02  0.16321815E+02  0.14797132E+02  0.13237944E+02
  0.11667696E+02  0.10109029E+02  0.85833415E+01  0.71104120E+01  0.57080586E+01
  0.43918649E+01  0.31749650E+01  0.20678934E+01  0.10785011E+01  0.21193611E+00
 -0.52931358E+00 -0.11453179E+01 -0.16385491E+01 -0.20136792E+01 -0.22773363E+01
 -0.24378299E+01 -0.25048513E+01 -0.24891594E+01 -0.24022601E+01 -0.22560864E+01
 -0.20626898E+01 -0.18339478E+01 -0.15812955E+01 -0.13154861E+01 -0.10463850E+01
 -0.78280170E+00 -0.53236022E+00 -0.30140999E+00 -0.94977076E-01  0.83245699E-01
  0.23087204E+00  0.34676178E+00  0.43093081E+00  0.48443582E+00  0.50923874E+00
  0.50805626E+00  0.48419959E+00  0.44140996E+00  0.38369488E+00  0.31517002E+00
  0.23991091E+00  0.16181845E+00  0.84501123E-01  0.11176513E-01 -0.55406302E-01
 -0.11302248E+00 -0.16000509E+00 -0.19525725E+00 -0.21824379E+00 -0.22896432E+00
 -0.22790971E+00 -0.21600475E+00 -0.19453979E+00 -0.16509443E+00 -0.12945639E+00
 -0.89538713E-01 -0.47298188E-01 -0.46577863E-02  0.36564479E-01  0.74718168E-01
  0.10837286E+00  0.13635919E+00  0.15779779E+00  0.17211570E+00  0.17905055E+00
 Real Space Part
  0.49395687E+02  0.49379042E+02  0.49329089E+02  0.49245785E+02  0.49129057E+02
  0.48978804E+02  0.48794901E+02  0.48577200E+02  0.48325536E+02  0.48039727E+02
  0.47719583E+02  0.47364905E+02  0.46975497E+02  0.46551167E+02  0.46091735E+02
  0.45597041E+02  0.45066946E+02  0.44501349E+02  0.43900182E+02  0.43263429E+02
  0.42591125E+02  0.41883368E+02  0.41140323E+02  0.40362233E+02  0.39549424E+02
  0.38702312E+02  0.37821410E+02  0.36907334E+02  0.35960810E+02  0.34982678E+02
  0.33973898E+02  0.32935555E+02  0.31868862E+02  0.30775163E+02  0.29655937E+02
  0.28512801E+02  0.27347507E+02  0.26161946E+02  0.24958149E+02  0.23738283E+02
  0.22504649E+02  0.21259682E+02  0.20005946E+02  0.18746130E+02  0.17483043E+02
  0.16219607E+02  0.14958854E+02  0.13703912E+02  0.12458004E+02  0.11224434E+02
  0.10006579E+02  0.88078805E+01  0.76318293E+01  0.64819586E+01  0.53618291E+01
  0.42750177E+01  0.32251042E+01  0.22156581E+01  0.12502248E+01  0.33231230E+00
 -0.53462325E+00 -0.13471915E+01 -0.21020822E+01 -0.27960790E+01 -0.34260739E+01
 -0.39890800E+01 -0.44822382E+01 -0.49027810E+01 -0.52542765E+01 -0.55620727E+01
 -0.58295996E+01 -0.60570964E+01 -0.62448678E+01 -0.63933170E+01 -0.65029446E+01
 -0.65743443E+01 -0.66082058E+01 -0.66053069E+01 -0.65665124E+01 -0.64927703E+01
 -0.63851030E+01 -0.62446062E+01 -0.60724394E+01 -0.58698155E+01 -0.56380049E+01
 -0.53783119E+01 -0.50920872E+01 -0.47807040E+01 -0.44455632E+01 -0.40880857E+01
 -0.37097088E+01 -0.33118733E+01 -0.28960433E+01 -0.24636676E+01 -0.20162757E+01
 -0.15550717E+01 -0.10813224E+01 -0.60591655E+00 -0.74002434E-01 -0.26504331E-13
 Non local Part
           1           2   1.35055464917301     
   6.20215479269746        9.33700666706066        9.33700666706066     
   13.7088960890366     
 Reciprocal Space Part
  0.00000000E+00  0.70543054E+00  0.13908441E+01  0.20366815E+01  0.26242881E+01
  0.31363391E+01  0.35572332E+01  0.38734449E+01  0.40738281E+01  0.41498628E+01
  0.40958403E+01  0.39089821E+01  0.35894910E+01  0.31405320E+01  0.25681463E+01
  0.18810989E+01  0.10906651E+01  0.21036156E+00 -0.74437104E+00 -0.17565264E+01
 -0.28079218E+01 -0.38796097E+01 -0.49523006E+01 -0.60067877E+01 -0.70243627E+01
 -0.79872136E+01 -0.88787944E+01 -0.96841602E+01 -0.10390258E+02 -0.10986170E+02
 -0.11463300E+02 -0.11815508E+02 -0.12039182E+02 -0.12133249E+02 -0.12099133E+02
 -0.11940657E+02 -0.11663885E+02 -0.11276929E+02 -0.10789711E+02 -0.10213688E+02
 -0.95615548E+01 -0.88469283E+01 -0.80840227E+01 -0.72873214E+01 -0.64712566E+01
 -0.56499024E+01 -0.48366890E+01 -0.40441443E+01 -0.32836671E+01 -0.25653379E+01
 -0.18977688E+01 -0.12879953E+01 -0.74141093E+00 -0.26174416E+00  0.14892371E+00
  0.49010205E+00  0.76279895E+00  0.96939809E+00  0.11135090E+01  0.11997960E+01
  0.12337911E+01  0.12216971E+01  0.11701861E+01  0.10861988E+01  0.97675058E+00
  0.84874841E+00  0.70882335E+00  0.56318180E+00  0.41747886E+00  0.27671553E+00
  0.14516141E+00  0.26303208E-01 -0.77180944E-01 -0.16342246E+00 -0.23134003E+00
 -0.28059638E+00 -0.31153661E+00 -0.32511122E+00 -0.32278710E+00 -0.30645007E+00
 -0.27830221E+00 -0.24075785E+00 -0.19634113E+00 -0.14758844E+00 -0.96958329E-01
 -0.46751258E-01  0.95897596E-03  0.44380733E-01  0.82046060E-01  0.11283787E+00
  0.13600287E+00  0.15115079E+00  0.15824086E+00  0.15755686E+00  0.14967246E+00
  0.13540843E+00  0.11578407E+00  0.91964674E-01  0.65207161E-01  0.36806030E-01
 Real Space Part
  0.00000000E+00 -0.11169417E+01 -0.22306411E+01 -0.33378647E+01 -0.44353966E+01
 -0.55200471E+01 -0.65886620E+01 -0.76381306E+01 -0.86653953E+01 -0.96674593E+01
 -0.10641396E+02 -0.11584358E+02 -0.12493584E+02 -0.13366409E+02 -0.14200273E+02
 -0.14992725E+02 -0.15741439E+02 -0.16444214E+02 -0.17098988E+02 -0.17703841E+02
 -0.18257005E+02 -0.18756872E+02 -0.19201999E+02 -0.19591114E+02 -0.19923127E+02
 -0.20197130E+02 -0.20412405E+02 -0.20568430E+02 -0.20664885E+02 -0.20701650E+02
 -0.20678817E+02 -0.20596685E+02 -0.20455768E+02 -0.20256794E+02 -0.20000708E+02
 -0.19688670E+02 -0.19322057E+02 -0.18902458E+02 -0.18431679E+02 -0.17911733E+02
 -0.17344838E+02 -0.16733419E+02 -0.16080093E+02 -0.15387669E+02 -0.14659140E+02
 -0.13897674E+02 -0.13106608E+02 -0.12289433E+02 -0.11449790E+02 -0.10591455E+02
 -0.97183278E+01 -0.88344199E+01 -0.79438406E+01 -0.70507838E+01 -0.61595124E+01
 -0.52743436E+01 -0.43996334E+01 -0.35397602E+01 -0.26991083E+01 -0.18820514E+01
 -0.10929353E+01 -0.33606079E+00  0.38433354E+00  0.10640887E+01  0.16991425E+01
  0.22855461E+01  0.28194784E+01  0.32972433E+01  0.37177712E+01  0.40901651E+01
  0.44166316E+01  0.46981917E+01  0.49358858E+01  0.51307910E+01  0.52840260E+01
  0.53967531E+01  0.54701833E+01  0.55055756E+01  0.55042390E+01  0.54675322E+01
  0.53968600E+01  0.52936733E+01  0.51594640E+01  0.49957572E+01  0.48041147E+01
  0.45861170E+01  0.43433717E+01  0.40774946E+01  0.37901123E+01  0.34828547E+01
  0.31573511E+01  0.28152184E+01  0.24580747E+01  0.20875077E+01  0.17051516E+01
  0.13123479E+01  0.91046775E+00  0.50888588E+00  0.62151375E-01  0.22311534E-13
 Reciprocal Space Part
  0.00000000E+00  0.47943452E-01  0.10133191E+00  0.16545510E+00  0.24529621E+00
  0.34538855E+00  0.46968387E+00  0.62143570E+00  0.80310074E+00  0.10162608E+01
  0.12615672E+01  0.15387094E+01  0.18464079E+01  0.21824325E+01  0.25436444E+01
  0.29260618E+01  0.33249468E+01  0.37349118E+01  0.41500417E+01  0.45640298E+01
  0.49703235E+01  0.53622760E+01  0.57333000E+01  0.60770199E+01  0.63874191E+01
  0.66589773E+01  0.68867967E+01  0.70667116E+01  0.71953811E+01  0.72703619E+01
  0.72901584E+01  0.72542522E+01  0.71631070E+01  0.70181524E+01  0.68217446E+01
  0.65771073E+01  0.62882537E+01  0.59598917E+01  0.55973158E+01  0.52062873E+01
  0.47929069E+01  0.43634833E+01  0.39243994E+01  0.34819815E+01  0.30423724E+01
  0.26114138E+01  0.21945378E+01  0.17966728E+01  0.14221626E+01  0.10747028E+01
  0.75729399E+00  0.47221246E+00  0.22099917E+00  0.44656384E-02 -0.17728342E+00
 -0.32481222E+00 -0.43930226E+00 -0.52248888E+00 -0.57658803E+00 -0.60421566E+00
 -0.60830191E+00 -0.59200275E+00 -0.55861131E+00 -0.51147115E+00 -0.45389369E+00
 -0.38908176E+00 -0.32006071E+00 -0.24961873E+00 -0.18025725E+00 -0.11415230E+00
 -0.53127012E-01  0.13643508E-02  0.48241426E-01  0.86792160E-01  0.11665751E+00
  0.13780749E+00  0.15050974E+00  0.15529207E+00  0.15290040E+00  0.14425372E+00
  0.13039742E+00  0.11245667E+00  0.91591120E-01  0.68952300E-01  0.45644684E-01
  0.22691521E-01  0.10060771E-02 -0.18631170E-01 -0.35589065E-01 -0.49395950E-01
 -0.59743601E-01 -0.66485221E-01 -0.69627975E-01 -0.69320682E-01 -0.65837420E-01
 -0.59557862E-01 -0.50945243E-01 -0.40522862E-01 -0.28850035E-01 -0.16498364E-01
 Real Space Part
  0.00000000E+00  0.62650606E+00  0.12513428E+01  0.18728451E+01  0.24893563E+01
  0.30992326E+01  0.37008471E+01  0.42925939E+01  0.48728928E+01  0.54401931E+01
  0.59929779E+01  0.65297684E+01  0.70491282E+01  0.75496670E+01  0.80300451E+01
  0.84889775E+01  0.89252377E+01  0.93376619E+01  0.97251527E+01  0.10086683E+02
  0.10421301E+02  0.10728130E+02  0.11006378E+02  0.11255334E+02  0.11474379E+02
  0.11662981E+02  0.11820705E+02  0.11947212E+02  0.12042260E+02  0.12105711E+02
  0.12137529E+02  0.12137783E+02  0.12106649E+02  0.12044409E+02  0.11951456E+02
  0.11828290E+02  0.11675519E+02  0.11493861E+02  0.11284141E+02  0.11047291E+02
  0.10784348E+02  0.10496453E+02  0.10184847E+02  0.98508699E+01  0.94959551E+01
  0.91216289E+01  0.87295041E+01  0.83212766E+01  0.78987199E+01  0.74636803E+01
  0.70180705E+01  0.65638646E+01  0.61030904E+01  0.56378238E+01  0.51701806E+01
  0.47023101E+01  0.42363867E+01  0.37746022E+01  0.33191579E+01  0.28722562E+01
  0.24360919E+01  0.20128440E+01  0.16046670E+01  0.12136822E+01  0.84196942E+00
  0.49155788E+00  0.16441899E+00 -0.13753790E+00 -0.41308364E+00 -0.66400303E+00
 -0.89103531E+00 -0.10946677E+01 -0.12753981E+01 -0.14337408E+01 -0.15702291E+01
 -0.16854168E+01 -0.17798807E+01 -0.18542207E+01 -0.19090617E+01 -0.19450529E+01
 -0.19628672E+01 -0.19632011E+01 -0.19467728E+01 -0.19143192E+01 -0.18665966E+01
 -0.18043738E+01 -0.17284347E+01 -0.16395708E+01 -0.15385815E+01 -0.14262710E+01
 -0.13034457E+01 -0.11709096E+01 -0.10294691E+01 -0.87991975E+00 -0.72307856E+00
 -0.55963708E+00 -0.39030054E+00 -0.21924931E+00 -0.26865839E-01 -0.96872237E-14
 PAW radial sets
         357   1.13935808839270     
(5E20.12)                                
 augmentation charges (non sperical)
  0.571888698508E+00  0.556027041443E+00 -0.117208212701E+00 -0.229505113076E+00 -0.221080383211E+00
 -0.277983084157E+00  0.556027041443E+00  0.540510846246E+00 -0.116995004226E+00 -0.229497482732E+00
 -0.218346141977E+00 -0.276073791831E+00 -0.117208212701E+00 -0.116995004226E+00 -0.436950749342E-01
 -0.104764957127E+00 -0.185501716964E-01 -0.787847156329E-01 -0.229505113076E+00 -0.229497482732E+00
 -0.104764957127E+00 -0.249522898299E+00 -0.524777662631E-01 -0.191147854865E+00 -0.221080383211E+00
 -0.218346141977E+00 -0.185501716964E-01 -0.524777662631E-01  0.261037458289E-01 -0.176516555412E-01
 -0.277983084157E+00 -0.276073791831E+00 -0.787847156329E-01 -0.191147854865E+00 -0.176516555412E-01
 -0.129774011024E+00
 uccopancies in atom
  0.999999998216E+00  0.000000000000E+00  0.000000000000E+00  0.000000000000E+00  0.000000000000E+00
  0.000000000000E+00  0.000000000000E+00  0.000000000000E+00  0.000000000000E+00  0.000000000000E+00
  0.000000000000E+00  0.000000000000E+00  0.000000000000E+00  0.000000000000E+00  0.100000000228E+01
  0.000000000000E+00  0.000000000000E+00  0.000000000000E+00  0.000000000000E+00  0.000000000000E+00
  0.000000000000E+00  0.000000000000E+00  0.000000000000E+00  0.000000000000E+00  0.000000000000E+00
  0.000000000000E+00  0.000000000000E+00  0.000000000000E+00  0.000000000000E+00  0.000000000000E+00
  0.000000000000E+00  0.000000000000E+00  0.000000000000E+00  0.000000000000E+00  0.000000000000E+00
  0.000000000000E+00
 grid
  0.433790055694E-04  0.447895826131E-04  0.462460281033E-04  0.477498335675E-04  0.493025390339E-04
  0.509057346085E-04  0.525610621037E-04  0.542702167195E-04  0.560349487796E-04  0.578570655238E-04
  0.597384329589E-04  0.616809777695E-04  0.636866892914E-04  0.657576215483E-04  0.678958953558E-04
  0.701037004933E-04  0.723832979460E-04  0.747370222209E-04  0.771672837375E-04  0.796765712958E-04
  0.822674546256E-04  0.849425870178E-04  0.877047080418E-04  0.905566463508E-04  0.935013225790E-04
  0.965417523320E-04  0.996810492756E-04  0.102922428324E-03  0.106269208933E-03  0.109724818499E-03
  0.113292795866E-03  0.116976794957E-03  0.120780588507E-03  0.124708071935E-03  0.128763267326E-03
  0.132950327554E-03  0.137273540536E-03  0.141737333618E-03  0.146346278116E-03  0.151105093991E-03
  0.156018654687E-03  0.161091992118E-03  0.166330301826E-03  0.171738948298E-03  0.177323470461E-03
  0.183089587352E-03  0.189043203980E-03  0.195190417368E-03  0.201537522801E-03  0.208091020268E-03
  0.214857621123E-03  0.221844254958E-03  0.229058076695E-03  0.236506473919E-03  0.244197074440E-03
  0.252137754103E-03  0.260336644860E-03  0.268802143090E-03  0.277542918204E-03  0.286567921520E-03
  0.295886395428E-03  0.305507882861E-03  0.315442237063E-03  0.325699631680E-03  0.336290571181E-03
  0.347225901613E-03  0.358516821711E-03  0.370174894363E-03  0.382212058454E-03  0.394640641093E-03
  0.407473370233E-03  0.420723387711E-03  0.434404262703E-03  0.448530005620E-03  0.463115082457E-03
  0.478174429608E-03  0.493723469160E-03  0.509778124687E-03  0.526354837561E-03  0.543470583784E-03
  0.561142891375E-03  0.579389858323E-03  0.598230171114E-03  0.617683123877E-03  0.637768638135E-03
  0.658507283209E-03  0.679920297284E-03  0.702029609158E-03  0.724857860698E-03  0.748428430029E-03
  0.772765455473E-03  0.797893860271E-03  0.823839378105E-03  0.850628579453E-03  0.878288898798E-03
  0.906848662724E-03  0.936337118925E-03  0.966784466157E-03  0.998221885165E-03  0.103068157061E-02
  0.106419676405E-02  0.109880178797E-02  0.113453208094E-02  0.117142423390E-02  0.120951602764E-02
  0.124884647149E-02  0.128945584325E-02  0.133138573047E-02  0.137467907303E-02  0.141938020708E-02
  0.146553491049E-02  0.151319044972E-02  0.156239562819E-02  0.161320083632E-02  0.166565810308E-02
  0.171982114928E-02  0.177574544263E-02  0.183348825448E-02  0.189310871852E-02  0.195466789132E-02
  0.201822881484E-02  0.208385658104E-02  0.215161839846E-02  0.222158366115E-02  0.229382401964E-02
  0.236841345437E-02  0.244542835143E-02  0.252494758082E-02  0.260705257718E-02  0.269182742319E-02
  0.277935893570E-02  0.286973675464E-02  0.296305343478E-02  0.305940454057E-02  0.315888874394E-02
  0.326160792543E-02  0.336766727845E-02  0.347717541705E-02  0.359024448712E-02  0.370699028127E-02
  0.382753235741E-02  0.395199416115E-02  0.408050315225E-02  0.421319093515E-02  0.435019339373E-02
  0.449165083049E-02  0.463770811020E-02  0.478851480828E-02  0.494422536396E-02  0.510499923846E-02
  0.527100107828E-02  0.544240088381E-02  0.561937418342E-02  0.580210221324E-02  0.599077210274E-02
  0.618557706637E-02  0.638671660145E-02  0.659439669242E-02  0.680883002184E-02  0.703023618820E-02
  0.725884193075E-02  0.749488136174E-02  0.773859620618E-02  0.799023604937E-02  0.825005859249E-02
  0.851832991654E-02  0.879532475480E-02  0.908132677417E-02  0.937662886573E-02  0.968153344461E-02
  0.999635275976E-02  0.103214092137E-01  0.106570356925E-01  0.110035759072E-01  0.113613847451E-01
  0.117308286338E-01  0.121122859162E-01  0.125061472377E-01  0.129128159469E-01  0.133327085079E-01
  0.137662549276E-01  0.142138991952E-01  0.146760997377E-01  0.151533298888E-01  0.156460783738E-01
  0.161548498103E-01  0.166801652247E-01  0.172225625859E-01  0.177825973562E-01  0.183608430601E-01
  0.189578918717E-01  0.195743552212E-01  0.202108644209E-01  0.208680713120E-01  0.215466489316E-01
  0.222472922025E-01  0.229707186447E-01  0.237176691101E-01  0.244889085412E-01  0.252852267546E-01
  0.261074392498E-01  0.269563880441E-01  0.278329425353E-01  0.287380003918E-01  0.296724884720E-01
  0.306373637733E-01  0.316336144124E-01  0.326622606369E-01  0.337243558704E-01  0.348209877913E-01
  0.359532794466E-01  0.371223904017E-01  0.383295179285E-01  0.395758982311E-01  0.408628077118E-01
  0.421915642783E-01  0.435635286936E-01  0.449801059690E-01  0.464427468035E-01  0.479529490690E-01
  0.495122593448E-01  0.511222745007E-01  0.527846433330E-01  0.545010682526E-01  0.562733070286E-01
  0.581031745885E-01  0.599925448764E-01  0.619433527727E-01  0.639575960751E-01  0.660373375447E-01
  0.681847070187E-01  0.704019035909E-01  0.726911978644E-01  0.750549342766E-01  0.774955335001E-01
  0.800154949218E-01  0.826173992024E-01  0.853039109193E-01  0.880777812952E-01  0.909418510157E-01
  0.938990531386E-01  0.969524160971E-01  0.100105066802E+00  0.103360233843E+00  0.106721250795E+00
  0.110191559634E+00  0.113774714259E+00  0.117474384133E+00  0.121294358043E+00  0.125238547974E+00
  0.129310993122E+00  0.133515864027E+00  0.137857466844E+00  0.142340247753E+00  0.146968797515E+00
  0.151747856167E+00  0.156682317885E+00  0.161777235988E+00  0.167037828118E+00  0.172469481580E+00
  0.178077758862E+00  0.183868403331E+00  0.189847345111E+00  0.196020707163E+00  0.202394811548E+00
  0.208976185907E+00  0.215771570140E+00  0.222787923317E+00  0.230032430796E+00  0.237512511584E+00
  0.245235825940E+00  0.253210283211E+00  0.261444049938E+00  0.269945558219E+00  0.278723514341E+00
  0.287786907697E+00  0.297145019995E+00  0.306807434759E+00  0.316784047146E+00  0.327085074080E+00
  0.337721064711E+00  0.348702911225E+00  0.360041859991E+00  0.371749523083E+00  0.383837890172E+00
  0.396319340802E+00  0.409206657069E+00  0.422513036711E+00  0.436252106624E+00  0.450437936815E+00
  0.465085054815E+00  0.480208460553E+00  0.495823641716E+00  0.511946589616E+00  0.528593815560E+00
  0.545782367762E+00  0.563529848801E+00  0.581854433649E+00  0.600774888282E+00  0.620310588899E+00
  0.640481541764E+00  0.661308403696E+00  0.682812503221E+00  0.705015862417E+00  0.727941219464E+00
  0.751612051929E+00  0.776052600815E+00  0.801287895380E+00  0.827343778768E+00  0.854246934484E+00
  0.882024913708E+00  0.910706163518E+00  0.940320056022E+00  0.970896918432E+00  0.100246806413E+01
  0.103506582472E+01  0.106872358317E+01  0.110347580795E+01  0.113935808839E+01  0.117640717108E+01
  0.121466099750E+01  0.125415874293E+01  0.129494085651E+01  0.133704910268E+01  0.138052660397E+01
  0.142541788514E+01  0.147176891878E+01  0.151962717241E+01  0.156904165705E+01  0.162006297745E+01
  0.167274338392E+01  0.172713682578E+01  0.178329900667E+01  0.184128744158E+01  0.190116151573E+01
  0.196298254541E+01  0.202681384074E+01  0.209272077056E+01  0.216077082932E+01  0.223103370622E+01
  0.230358135660E+01  0.237848807559E+01  0.245583057420E+01  0.253568805793E+01  0.261814230780E+01
  0.270327776419E+01  0.279118161322E+01  0.288194387614E+01  0.297565750142E+01  0.307241846001E+01
  0.317232584358E+01  0.327548196603E+01  0.338199246824E+01  0.349196642627E+01  0.360551646306E+01
  0.372275886377E+01  0.384381369488E+01
 aepotential
  0.158886078488E+05  0.159847742606E+05  0.160535935615E+05  0.160944839304E+05  0.161070604845E+05
  0.160911962768E+05  0.160469255513E+05  0.159745179632E+05  0.158744706244E+05  0.157474689562E+05
  0.155943885159E+05  0.154163069051E+05  0.152144567982E+05  0.149902366426E+05  0.147451531618E+05
  0.144808403357E+05  0.141990341218E+05  0.139015084105E+05  0.135901051672E+05  0.132666736948E+05
  0.129330705729E+05  0.125911364028E+05  0.122426595256E+05  0.118893889993E+05  0.115329916166E+05
  0.111750548528E+05  0.108170729729E+05  0.104604336495E+05  0.101064192320E+05  0.975619612227E+04
  0.941081671917E+04  0.907121674473E+04  0.873821741051E+04  0.841252824233E+04  0.809475054968E+04
  0.778538273135E+04  0.748482591526E+04  0.719339050510E+04  0.691130289066E+04  0.663871263772E+04
  0.637569967111E+04  0.612228145819E+04  0.587842006509E+04  0.564402896373E+04  0.541897952671E+04
  0.520310718436E+04  0.499621710658E+04  0.479808955718E+04  0.460848463699E+04  0.442714673002E+04
  0.425380850467E+04  0.408819428389E+04  0.393002304238E+04  0.377901153029E+04  0.363487604331E+04
  0.349733480297E+04  0.336610930181E+04  0.324092618665E+04  0.312151780576E+04  0.300762360053E+04
  0.289899022024E+04  0.279537319701E+04  0.269653576666E+04  0.260225059457E+04  0.251229872767E+04
  0.242647068810E+04  0.234456566366E+04  0.226639158155E+04  0.219176535484E+04  0.212051213275E+04
  0.205246550003E+04  0.198746699806E+04  0.192536581147E+04  0.186601883661E+04  0.180928979601E+04
  0.175504962079E+04  0.170317548841E+04  0.165355103796E+04  0.160606603206E+04  0.156061547645E+04
  0.151710007152E+04  0.147542581582E+04  0.143550320417E+04  0.139724768218E+04  0.136057877871E+04
  0.132542057864E+04  0.129170057675E+04  0.125935043458E+04  0.122830514208E+04  0.119850296960E+04
  0.116988539393E+04  0.114239689962E+04  0.111598473148E+04  0.109059879534E+04  0.106619145770E+04
  0.104271759649E+04  0.102013415927E+04  0.998400360819E+03  0.977477261607E+03  0.957328002674E+03
  0.937917322283E+03  0.919211788355E+03  0.901179501050E+03  0.883790074071E+03  0.867014581399E+03
  0.850825414685E+03  0.835196260169E+03  0.820102020947E+03  0.805518730259E+03  0.791423498728E+03
  0.777794492954E+03  0.764610820488E+03  0.751852516551E+03  0.739500493203E+03  0.727536482864E+03
  0.715942991823E+03  0.704703278528E+03  0.693801313831E+03  0.683221677144E+03  0.672949662282E+03
  0.662971081813E+03  0.653272376615E+03  0.643840475350E+03  0.634662854333E+03  0.625727459217E+03
  0.617022688883E+03  0.608537381663E+03  0.600260793011E+03  0.592182577027E+03  0.584292745669E+03
  0.576581678540E+03  0.569040085008E+03  0.561658997120E+03  0.554429754549E+03  0.547343982233E+03
  0.540393581350E+03  0.533570718614E+03  0.526867810679E+03  0.520277508149E+03  0.513792693630E+03
  0.507406463263E+03  0.501112125501E+03  0.494903180684E+03  0.488773321178E+03  0.482716423574E+03
  0.476726534117E+03  0.470797868908E+03  0.464924804238E+03  0.459101870926E+03  0.453323749791E+03
  0.447585266037E+03  0.441881384856E+03  0.436207207696E+03  0.430557968533E+03  0.424929030692E+03
  0.419315884304E+03  0.413714143811E+03  0.408119547752E+03  0.402527953319E+03  0.396935341875E+03
  0.391337810006E+03  0.385731581663E+03  0.380112991225E+03  0.374478503852E+03  0.368824700988E+03
  0.363148291003E+03  0.357446108871E+03  0.351715118253E+03  0.345952414942E+03  0.340155233548E+03
  0.334320947216E+03  0.328447076173E+03  0.322531291324E+03  0.316571422706E+03  0.310565463072E+03
  0.304511580074E+03  0.298408119852E+03  0.292253621099E+03  0.286046822401E+03  0.279786674769E+03
  0.273472354908E+03  0.267103277916E+03  0.260679113758E+03  0.254199803538E+03  0.247665578511E+03
  0.241076980233E+03  0.234434883493E+03  0.227740520329E+03  0.220995507569E+03  0.214201875585E+03
  0.207362100105E+03  0.200479135716E+03  0.193556451721E+03  0.186598068980E+03  0.179608597629E+03
  0.172593274033E+03  0.165557995236E+03  0.158509348645E+03  0.151454634036E+03  0.144401872553E+03
  0.137359799793E+03  0.130337833960E+03  0.123346015117E+03  0.116394905389E+03  0.109495444582E+03
  0.102658754364E+03  0.958958889823E+02  0.892175361171E+02  0.826336821944E+02  0.761532714543E+02
  0.697839101030E+02  0.635316936609E+02  0.574012671831E+02  0.513962550142E+02  0.455202101927E+02
  0.397782073265E+02  0.341791131100E+02  0.287383874051E+02  0.234809745165E+02  0.184435667458E+02
  0.136751472769E+02  0.923486860371E+01  0.518662994482E+01  0.159065097699E+01 -0.150661938959E+01
 -0.408213282508E+01 -0.614314346646E+01 -0.772965593027E+01 -0.891158995294E+01 -0.978086074172E+01
 -0.104397249995E+02 -0.109879954557E+02 -0.115124003401E+02 -0.120806514970E+02 -0.127407845834E+02
 -0.135242872351E+02 -0.144506382559E+02 -0.155313886734E+02 -0.167729517728E+02 -0.181781749805E+02
 -0.197471322532E+02 -0.214775836097E+02 -0.233653463120E+02 -0.254046768390E+02 -0.275886458567E+02
 -0.299094686571E+02 -0.323587515577E+02 -0.349276466918E+02 -0.376069069576E+02 -0.403868573075E+02
 -0.432572924635E+02 -0.462073090280E+02 -0.492250850036E+02 -0.522976145990E+02 -0.554104160802E+02
 -0.585472404030E+02 -0.616898337705E+02 -0.648178385383E+02 -0.679089580994E+02 -0.709395514898E+02
 -0.738858470709E+02 -0.767259368428E+02 -0.794425813706E+02 -0.820265439188E+02 -0.844795554321E+02
 -0.868150029323E+02 -0.890529565436E+02 -0.912054381313E+02 -0.932498889623E+02 -0.950978244659E+02
 -0.965812343499E+02 -0.974874002237E+02 -0.976547593932E+02 -0.970916707590E+02 -0.960226380694E+02
 -0.947813690870E+02 -0.936226570656E+02 -0.926328127736E+02 -0.917819394402E+02 -0.910106161024E+02
 -0.902759035528E+02 -0.895592736059E+02 -0.888592728139E+02 -0.881821160661E+02 -0.875347272795E+02
 -0.869210483424E+02 -0.863410286435E+02 -0.857911847362E+02 -0.852657755332E+02 -0.847579359418E+02
 -0.842605301978E+02 -0.837666789725E+02 -0.832700346288E+02 -0.827648748640E+02 -0.822461073749E+02
 -0.817092236332E+02 -0.811502215777E+02 -0.805655444559E+02 -0.799520047260E+02 -0.793067499353E+02
 -0.786271895936E+02 -0.779110107703E+02 -0.771561605068E+02 -0.763608746481E+02 -0.755237268348E+02
 -0.746436917716E+02 -0.737202266833E+02 -0.727533583967E+02 -0.717437296762E+02 -0.706926340281E+02
 -0.696019880523E+02 -0.684742464293E+02 -0.673122612128E+02 -0.661191023818E+02 -0.648978738488E+02
 -0.636515684191E+02 -0.623830079822E+02 -0.610948993536E+02 -0.597900016742E+02 -0.584713530264E+02
 -0.571424739932E+02 -0.558074526249E+02 -0.544708645811E+02 -0.531375476303E+02 -0.518122916986E+02
 -0.504995550946E+02 -0.492032547876E+02 -0.479266703637E+02 -0.466724405730E+02 -0.454426186858E+02
 -0.442387496947E+02 -0.430619434396E+02 -0.419129267761E+02 -0.407920689678E+02 -0.396993854410E+02
 -0.386345320573E+02 -0.375968029279E+02 -0.365851476460E+02 -0.355982223655E+02 -0.346344774661E+02
 -0.336922766958E+02 -0.327700342591E+02 -0.318663489946E+02 -0.309801176205E+02 -0.301106128864E+02
 -0.292575199104E+02 -0.284209324968E+02 -0.276013113738E+02 -0.267994145761E+02 -0.260162048130E+02
 -0.252527417385E+02 -0.245100664158E+02 -0.237890868069E+02 -0.230904748621E+02 -0.224145867225E+02
 -0.217614162710E+02 -0.211305881169E+02
 core charge-density
  0.511568459102E-03  0.544768488033E-03  0.580120708456E-03  0.617764389565E-03  0.657847788439E-03
  0.700528727703E-03  0.745975210093E-03  0.794366072240E-03  0.845891680162E-03  0.900754669104E-03
  0.959170730494E-03  0.102136944900E-02  0.108759519288E-02  0.115810806082E-02  0.123318488910E-02
  0.131312032248E-02  0.139822795314E-02  0.148884153176E-02  0.158531625524E-02  0.168803013586E-02
  0.179738545701E-02  0.191381032079E-02  0.203776029318E-02  0.216972015289E-02  0.231020575027E-02
  0.245976598299E-02  0.261898489586E-02  0.278848391227E-02  0.296892420543E-02  0.316100921785E-02
  0.336548733828E-02  0.358315474560E-02  0.381485842989E-02  0.406149940133E-02  0.432403609844E-02
  0.460348800761E-02  0.490093950672E-02  0.521754394613E-02  0.555452798161E-02  0.591319617384E-02
  0.629493587068E-02  0.670122238880E-02  0.713362451246E-02  0.759381032809E-02  0.808355341437E-02
  0.860473940873E-02  0.915937297193E-02  0.974958517412E-02  0.103776413265E-01  0.110459492842E-01
  0.117570682477E-01  0.125137180902E-01  0.133187892423E-01  0.141753531637E-01  0.150866734359E-01
  0.160562175100E-01  0.170876691460E-01  0.181849415812E-01  0.193521914683E-01  0.205938336237E-01
  0.219145566309E-01  0.233193393429E-01  0.248134683329E-01  0.264025563415E-01  0.280925617727E-01
  0.298898092928E-01  0.318010115872E-01  0.338332923341E-01  0.359942104558E-01  0.382917857082E-01
  0.407345256757E-01  0.433314542364E-01  0.460921415669E-01  0.490267357586E-01  0.521459961165E-01
  0.554613282174E-01  0.589848208012E-01  0.627292845755E-01  0.667082930119E-01  0.709362252128E-01
  0.754283109321E-01  0.802006778299E-01  0.852704010425E-01  0.906555551500E-01  0.963752686206E-01
  0.102449780813E+00  0.108900501609E+00  0.115750073757E+00  0.123022437994E+00  0.130742901006E+00
  0.138938206302E+00  0.147636608038E+00  0.156867947855E+00  0.166663734755E+00  0.177057228040E+00
  0.188083523343E+00  0.199779641732E+00  0.212184621884E+00  0.225339615282E+00  0.239287984385E+00
  0.254075403693E+00  0.269749963589E+00  0.286362276838E+00  0.303965587548E+00  0.322615882418E+00
  0.342372003996E+00  0.363295765674E+00  0.385452068064E+00  0.408909016370E+00  0.433738038289E+00
  0.460014001931E+00  0.487815333144E+00  0.517224131604E+00  0.548326284885E+00  0.581211579680E+00
  0.615973809233E+00  0.652710875919E+00  0.691524887821E+00  0.732522248018E+00  0.775813735169E+00
  0.821514573842E+00  0.869744492906E+00  0.920627770104E+00  0.974293260834E+00  0.103087440892E+01
  0.109050923705E+01  0.115334031427E+01  0.121951469787E+01  0.128918384673E+01  0.136250350288E+01
  0.143963353805E+01  0.152073776170E+01  0.160598368659E+01  0.169554224817E+01  0.178958747349E+01
  0.188829609538E+01  0.199184710742E+01  0.210042125487E+01  0.221420045711E+01  0.233336715631E+01
  0.245810358765E+01  0.258859096603E+01  0.272500858413E+01  0.286753281719E+01  0.301633602952E+01
  0.317158537825E+01  0.333344151012E+01  0.350205714734E+01  0.367757555922E+01  0.386012891685E+01
  0.404983652873E+01  0.424680295633E+01  0.445111600960E+01  0.466284462350E+01  0.488203661829E+01
  0.510871634775E+01  0.534288224149E+01  0.558450424941E+01  0.583352119880E+01  0.608983807699E+01
  0.635332325538E+01  0.662380567354E+01  0.690107200539E+01  0.718486383318E+01  0.747487485820E+01
  0.777074818180E+01  0.807207369363E+01  0.837838560884E+01  0.868916020001E+01  0.900381377397E+01
  0.932170094793E+01  0.964211328380E+01  0.996427834308E+01  0.102873592289E+02  0.106104546843E+02
  0.109325998197E+02  0.112527675420E+02  0.115698707621E+02  0.118827654545E+02  0.121902546418E+02
  0.124910933769E+02  0.127839947857E+02  0.130676372329E+02  0.133406726588E+02  0.136017361303E+02
  0.138494566301E+02  0.140824690972E+02  0.142994277092E+02  0.144990203792E+02  0.146799844119E+02
  0.148411232403E+02  0.149813241317E+02  0.150995767214E+02  0.151949921974E+02  0.152668229237E+02
  0.153144822524E+02  0.153375642372E+02  0.153358629240E+02  0.153093908571E+02  0.152583964065E+02
  0.151833794916E+02  0.150851052498E+02  0.149646151820E+02  0.148232352916E+02  0.146625807347E+02
  0.144845565061E+02  0.142913537065E+02  0.140854409687E+02  0.138695506729E+02  0.136466596386E+02
  0.134199640663E+02  0.131928485907E+02  0.129688494207E+02  0.127516116616E+02  0.125448410493E+02
  0.123522504701E+02  0.121775017833E+02  0.120241436176E+02  0.118955459533E+02  0.117948324720E+02
  0.117248117152E+02  0.116879083430E+02  0.116860958235E+02  0.117208320454E+02  0.117929994618E+02
  0.119028514651E+02  0.120499667577E+02  0.122332134914E+02  0.124507248971E+02  0.126998879929E+02
  0.129773467380E+02  0.132790206841E+02  0.136001397990E+02  0.139352957392E+02  0.142785094828E+02
  0.146233148987E+02  0.149628575066E+02  0.152900073140E+02  0.155974842193E+02  0.158779940172E+02
  0.161243726115E+02  0.163297356166E+02  0.164876301883E+02  0.165921856267E+02  0.166382590966E+02
  0.166215726839E+02  0.165388379748E+02  0.163878643995E+02  0.161676477543E+02  0.158784355695E+02
  0.155217663723E+02  0.151004803813E+02  0.146186997526E+02  0.140817772071E+02  0.134962126574E+02
  0.128695383417E+02  0.122101739262E+02  0.115272540519E+02  0.108304318365E+02  0.101296628760E+02
  0.943497527030E+01  0.875623206736E+01  0.810289322234E+01  0.748378461145E+01  0.690688175939E+01
  0.637911560749E+01  0.590620702937E+01  0.549253495230E+01  0.514104142829E+01  0.485317450339E+01
  0.462886669832E+01  0.446654772937E+01  0.436319186537E+01  0.431440577151E+01  0.431456712005E+01
  0.435702013234E+01  0.443431730492E+01  0.453847998468E+01  0.466125327103E+01  0.479434695024E+01
  0.492966365313E+01  0.505951419719E+01  0.517681605164E+01  0.527526866276E+01  0.534949911646E+01
  0.539517254344E+01  0.540906336209E+01  0.538908566501E+01  0.533428325159E+01  0.524478198271E+01
  0.512170873959E+01  0.496708255473E+01  0.478368425965E+01  0.457491138515E+01  0.434462503117E+01
  0.409699513080E+01  0.383634995978E+01  0.356703493453E+01  0.329328488396E+01  0.301911289545E+01
  0.274821815281E+01  0.248391349563E+01  0.222907348674E+01  0.198610225171E+01  0.175691996867E+01
  0.154296619785E+01  0.134521822198E+01  0.116422150439E+01  0.100012968279E+01  0.852751791424E+00
  0.721603763450E+00  0.605961836196E+00  0.504915653440E+00  0.417419185328E+00  0.342337959958E+00
  0.278491493387E+00  0.224690189207E+00  0.179766330102E+00  0.142599085032E+00  0.112133698186E+00
  0.873952121078E-01  0.674972152311E-01  0.516462044864E-01  0.391422218785E-01  0.293764614726E-01
  0.218265457712E-01  0.160501383748E-01  0.116774961686E-01  0.840347939673E-02  0.597944295473E-02
  0.420533704582E-02  0.292225715671E-02  0.200560567272E-02  0.135896184830E-02  0.908703325786E-03
  0.599380281641E-03  0.389811650248E-03  0.249850583178E-03  0.157752130793E-03  0.980687715525E-04
  0.599975395079E-04  0.361048043259E-04  0.213600224454E-04  0.124169197097E-04  0.708867303711E-05
  0.397201143202E-05  0.218321794536E-05  0.117641682593E-05  0.621052310692E-06  0.321004485712E-06
  0.162334274077E-06  0.802624399137E-07  0.387695400832E-07  0.182811971565E-07  0.840815214125E-08
  0.376887685000E-08  0.164497846742E-08
 kinetic energy-density
  0.314850555241E+03  0.316895035760E+03  0.319020863812E+03  0.321230949233E+03  0.323528153550E+03
  0.325915516287E+03  0.328396120651E+03  0.330973355374E+03  0.333650665508E+03  0.336431718394E+03
  0.339320314627E+03  0.342320521236E+03  0.345436548912E+03  0.348672860077E+03  0.352034080693E+03
  0.355525204925E+03  0.359151377476E+03  0.362918050891E+03  0.366830950052E+03  0.370896088281E+03
  0.375119842229E+03  0.379508832391E+03  0.384070093073E+03  0.388810975680E+03  0.393739234646E+03
  0.398862997062E+03  0.404190806017E+03  0.409731654480E+03  0.415494961517E+03  0.421490648309E+03
  0.427729114621E+03  0.434221295688E+03  0.440978670857E+03  0.448013303425E+03  0.455337858364E+03
  0.462965643001E+03  0.470910637624E+03  0.479187529874E+03  0.487811754511E+03  0.496799532986E+03
  0.506167914921E+03  0.515934825398E+03  0.526119111504E+03  0.536740594135E+03  0.547820120182E+03
  0.559379623165E+03  0.571442178600E+03  0.584032074288E+03  0.597174873991E+03  0.610897486397E+03
  0.625228248760E+03  0.640197002414E+03  0.655835180152E+03  0.672175883934E+03  0.689254002668E+03
  0.707106296816E+03  0.725771496217E+03  0.745290432442E+03  0.765706142674E+03  0.787064009782E+03
  0.809411855496E+03  0.832800137457E+03  0.857282037015E+03  0.882913668110E+03  0.909754187576E+03
  0.937866004368E+03  0.967314953146E+03  0.998170476902E+03  0.103050583083E+04  0.106439829744E+04
  0.109992940989E+04  0.113718518917E+04  0.117625637924E+04  0.121723872816E+04  0.126023324228E+04
  0.130534648618E+04  0.135269089477E+04  0.140238502860E+04  0.145455402819E+04  0.150932986594E+04
  0.156685170843E+04  0.162726637466E+04  0.169072869565E+04  0.175740194388E+04  0.182745823294E+04
  0.190107910953E+04  0.197845586482E+04  0.205979017689E+04  0.214529456457E+04  0.223519299421E+04
  0.232972137933E+04  0.242912824030E+04  0.253367531321E+04  0.264363818143E+04  0.275930693966E+04
  0.288098691389E+04  0.300899935058E+04  0.314368220744E+04  0.328539083615E+04  0.343449887333E+04
  0.359139897588E+04  0.375650369573E+04  0.393024633003E+04  0.411308178703E+04  0.430548748411E+04
  0.450796427765E+04  0.472103734403E+04  0.494525715902E+04  0.518120041995E+04  0.542947097977E+04
  0.569070081470E+04  0.596555096097E+04  0.625471243724E+04  0.655890716118E+04  0.687888885068E+04
  0.721544388744E+04  0.756939209325E+04  0.794158760626E+04  0.833291949412E+04  0.874431241579E+04
  0.917672728302E+04  0.963116158786E+04  0.101086498647E+05  0.106102638502E+05  0.111371126633E+05
  0.116903426285E+05  0.122711370721E+05  0.128807158343E+05  0.135203345904E+05  0.141912839183E+05
  0.148948880021E+05  0.156325031780E+05  0.164055159842E+05  0.172153409265E+05  0.180634178731E+05
  0.189512088423E+05  0.198801945285E+05  0.208518701612E+05  0.218677408531E+05  0.229293163644E+05
  0.240381052025E+05  0.251956080881E+05  0.264033106644E+05  0.276626754156E+05  0.289751328849E+05
  0.303420719401E+05  0.317648292190E+05  0.332446776597E+05  0.347828140593E+05  0.363803456805E+05
  0.380382758733E+05  0.397574886526E+05  0.415387322953E+05  0.433826019119E+05  0.452895209888E+05
  0.472597220112E+05  0.492932260442E+05  0.513898215389E+05  0.535490422623E+05  0.557701443745E+05
  0.580520831636E+05  0.603934889478E+05  0.627926429058E+05  0.652474524910E+05  0.677554271908E+05
  0.703136541406E+05  0.729187747823E+05  0.755669618351E+05  0.782538978156E+05  0.809747548595E+05
  0.837241765656E+05  0.864962620418E+05  0.892845527766E+05  0.920820228667E+05  0.948810727204E+05
  0.976735273181E+05  0.100450639069E+06  0.103203095983E+06  0.105921035957E+06  0.108594067089E+06
  0.111211295276E+06  0.113761358954E+06  0.116232471836E+06  0.118612473845E+06  0.120888890617E+06
  0.123049001808E+06  0.125079918439E+06  0.126968669027E+06  0.128702294829E+06  0.130267953515E+06
  0.131653031128E+06  0.132845261633E+06  0.133832853218E+06  0.134604620481E+06  0.135150121117E+06
  0.135459795906E+06  0.135525110025E+06  0.135338694255E+06  0.134894483590E+06  0.134187851277E+06
  0.133215735786E+06  0.131976758079E+06  0.130471326616E+06  0.128701727345E+06  0.126672195953E+06
  0.124388969762E+06  0.121860316754E+06  0.119096539449E+06  0.116109951674E+06  0.112914826658E+06
  0.109527315383E+06  0.105965334728E+06  0.102248425562E+06  0.983975816923E+05  0.944350512535E+05
  0.903841128017E+05  0.862688288907E+05  0.821137813861E+05  0.779437855838E+05  0.737836025750E+05
  0.696576313259E+05  0.655896016051E+05  0.616022649648E+05  0.577170914123E+05  0.539539794587E+05
  0.503309886083E+05  0.468641035540E+05  0.435670382237E+05  0.404510855083E+05  0.375250157595E+05
  0.347950244772E+05  0.322647275957E+05  0.299352013465E+05  0.278050632144E+05  0.258705904991E+05
  0.241258734578E+05  0.225630001172E+05  0.211722697805E+05  0.199424314905E+05  0.188609430941E+05
  0.179142456788E+05  0.170880476072E+05  0.163676119456E+05  0.157380411647E+05  0.151845529283E+05
  0.146927414193E+05  0.142488190128E+05  0.138398340859E+05  0.134538612601E+05  0.130801613976E+05
  0.127093095552E+05  0.123332895303E+05  0.119455549509E+05  0.115410569281E+05  0.111162392996E+05
  0.106690026374E+05  0.101986388525E+05  0.970573834789E+04  0.919207195857E+04  0.866045035350E+04
  0.811456378304E+04  0.755880576371E+04  0.699808505530E+04  0.643763140882E+04  0.588280205405E+04
  0.533889686532E+04  0.481099127835E+04  0.430379628847E+04  0.382154918006E+04  0.336792815395E+04
  0.294598833625E+04  0.255808658127E+04  0.220580285322E+04  0.188987686782E+04  0.161020210883E+04
  0.136590342953E+04  0.115547616960E+04  0.976929135003E+03  0.827895796411E+03  0.705721320126E+03
  0.607545105125E+03  0.530386436285E+03  0.471230708093E+03  0.427111347674E+03  0.395183712350E+03
  0.372788575649E+03  0.357503678684E+03  0.347182220549E+03  0.339977740099E+03  0.334355502132E+03
  0.329091101434E+03  0.323257828532E+03  0.316204639250E+03  0.307526991189E+03  0.297032933260E+03
  0.284706531901E+03  0.270670864247E+03  0.255152201386E+03  0.238446732449E+03  0.220890933113E+03
  0.202836110964E+03  0.184627623345E+03  0.166588489675E+03  0.149007496112E+03  0.132131296631E+03
  0.116160167602E+03  0.101246286774E+03  0.874954977839E+02  0.749699480944E+02  0.636926522716E+02
  0.536528552171E+02  0.448118747472E+02  0.371090535424E+02  0.304675155806E+02  0.247994914903E+02
  0.200110466560E+02  0.160061129568E+02  0.126897856370E+02  0.997089706131E+01  0.776391612786E+01
  0.599024542778E+01  0.457899829010E+01  0.346733926012E+01  0.260046883538E+01  0.193132885673E+01
  0.142010147145E+01  0.103356917531E+01  0.744396507556E+00  0.530384284946E+00  0.373736142900E+00
  0.260365964346E+00  0.179264664050E+00  0.121936468858E+00  0.819084334883E-01  0.543122982969E-01
  0.355346469694E-01  0.229293439423E-01  0.145851600227E-01  0.914109872715E-02  0.564203054794E-02
  0.342767707326E-02  0.204863904769E-02  0.120393228586E-02  0.695305924445E-03  0.394410852787E-03
  0.219622722032E-03  0.119980572122E-03  0.642674954664E-04  0.337326377607E-04  0.173383556821E-04
  0.872110220910E-05  0.428976593303E-05  0.206192194152E-05  0.967718768006E-06  0.443109011324E-06
  0.197782251870E-06  0.859796623538E-07
 mkinetic energy-density pseudized
  0.136493123310E-05  0.145514281196E-05  0.155131669040E-05  0.165384693109E-05  0.176315364125E-05
  0.187968469398E-05  0.200391756342E-05  0.213636128107E-05  0.227755852159E-05  0.242808782627E-05
  0.258856597359E-05  0.275965050642E-05  0.294204242618E-05  0.313648906516E-05  0.334378714864E-05
  0.356478605937E-05  0.380039131784E-05  0.405156829256E-05  0.431934615555E-05  0.460482209926E-05
  0.490916583222E-05  0.523362437180E-05  0.557952715372E-05  0.594829147927E-05  0.634142832258E-05
  0.676054852167E-05  0.720736937868E-05  0.768372169633E-05  0.819155727950E-05  0.873295693246E-05
  0.931013898483E-05  0.992546838088E-05  0.105814663697E-04  0.112808208357E-04  0.120263973121E-04
  0.128212507218E-04  0.136686378949E-04  0.145720309132E-04  0.155351313365E-04  0.165618853697E-04
  0.176565000313E-04  0.188234603921E-04  0.200675479514E-04  0.213938602294E-04  0.228078316532E-04
  0.243152558241E-04  0.259223092562E-04  0.276355766839E-04  0.294620780419E-04  0.314092972293E-04
  0.334852127733E-04  0.356983305206E-04  0.380577184893E-04  0.405730440237E-04  0.432546134056E-04
  0.461134140826E-04  0.491611596884E-04  0.524103380375E-04  0.558742622930E-04  0.595671255153E-04
  0.635040588168E-04  0.677011933596E-04  0.721757264508E-04  0.769459920066E-04  0.820315356731E-04
  0.874531949119E-04  0.932331843792E-04  0.993951869469E-04  0.105964450741E-03  0.112967892590E-03
  0.120434208318E-03  0.128393990314E-03  0.136879852887E-03  0.145926565896E-03  0.155571197211E-03
  0.165853264598E-03  0.176814897634E-03  0.188501010328E-03  0.200959485145E-03  0.214241369203E-03
  0.228401083421E-03  0.243496645509E-03  0.259589907676E-03  0.276746810065E-03  0.295037650925E-03
  0.314537374648E-03  0.335325878834E-03  0.357488341660E-03  0.381115570873E-03  0.406304375861E-03
  0.433157964298E-03  0.461786365023E-03  0.492306878845E-03  0.524844559160E-03  0.559532724318E-03
  0.596513503862E-03  0.635938420856E-03  0.677969012709E-03  0.722777493017E-03  0.770547457157E-03
  0.821474634499E-03  0.875767690333E-03  0.933649080802E-03  0.995355964318E-03  0.106114117322E-02
  0.113127424964E-02  0.120604254983E-02  0.128575242146E-02  0.137073045871E-02  0.146132484031E-02
  0.155790675603E-02  0.166087192735E-02  0.177064222874E-02  0.188766741593E-02  0.201242696852E-02
  0.214543205427E-02  0.228722762318E-02  0.243839463998E-02  0.259955246409E-02  0.277136138689E-02
  0.295452533658E-02  0.314979476176E-02  0.335796970557E-02  0.357990308290E-02  0.381650417411E-02
  0.406874234962E-02  0.433765104047E-02  0.462433197127E-02  0.492995967272E-02  0.525578629225E-02
  0.560314672242E-02  0.597346406805E-02  0.636825547451E-02  0.678913834084E-02  0.723783694337E-02
  0.771618949665E-02  0.822615568071E-02  0.876982466544E-02  0.934942366467E-02  0.996732705525E-02
  0.106260660980E-01  0.113283393007E-01  0.120770234646E-01  0.128751854609E-01  0.137260947837E-01
  0.146332369321E-01  0.156003276745E-01  0.166313282553E-01  0.177304616038E-01  0.189022296127E-01
  0.201514315565E-01  0.214831837246E-01  0.229029403485E-01  0.244165159095E-01  0.260301089163E-01
  0.277503272504E-01  0.295842151807E-01  0.315392821595E-01  0.336235335135E-01  0.358455031573E-01
  0.382142884603E-01  0.407395874083E-01  0.434317382115E-01  0.463017615171E-01  0.493614053986E-01
  0.526231933031E-01  0.561004751489E-01  0.598074817814E-01  0.637593830038E-01  0.679723494176E-01
  0.724636183214E-01  0.772515639295E-01  0.823557721954E-01  0.877971205351E-01  0.935978627709E-01
  0.997817196331E-01  0.106373975179E+00  0.113401579512E+00  0.120893258207E+00  0.128879628874E+00
  0.137393325319E+00  0.146469129791E+00  0.156144113832E+00  0.166457788275E+00  0.177452262986E+00
  0.189172416952E+00  0.201666079395E+00  0.214984222579E+00  0.229181167075E+00  0.244314800253E+00
  0.260446808831E+00  0.277642926362E+00  0.295973196578E+00  0.315512253588E+00  0.336339619946E+00
  0.358540023706E+00  0.382203735602E+00  0.407426927584E+00  0.434312053979E+00  0.462968256657E+00
  0.493511795584E+00  0.526066506292E+00  0.560764285812E+00  0.597745608712E+00  0.637160074973E+00
  0.679166991481E+00  0.723935989009E+00  0.771647676652E+00  0.822494335713E+00  0.876680655158E+00
  0.934424510789E+00  0.995957790379E+00  0.106152726704E+01  0.113139552318E+01  0.120584192742E+01
  0.128516366687E+01  0.136967683721E+01  0.145971759299E+01  0.155564336046E+01  0.165783411542E+01
  0.176669372814E+01  0.188265137771E+01  0.200616303752E+01  0.213771303380E+01  0.227781567870E+01
  0.242701697882E+01  0.258589642014E+01  0.275506882940E+01  0.293518631147E+01  0.312694026164E+01
  0.333106345062E+01  0.354833217926E+01  0.377956849861E+01  0.402564248954E+01  0.428747459456E+01
  0.456603799240E+01  0.486236100383E+01  0.517752951459E+01  0.551268939818E+01  0.586904891821E+01
  0.624788108579E+01  0.665052594331E+01  0.707839274076E+01  0.753296196527E+01  0.801578717780E+01
  0.852849660416E+01  0.907279441889E+01  0.965046165176E+01  0.102633566362E+02  0.109134149080E+02
  0.116026484486E+02  0.123331441565E+02  0.131070614090E+02  0.139266285676E+02  0.147941382523E+02
  0.157119411986E+02  0.166824384828E+02  0.177080718790E+02  0.187913120895E+02  0.199346445560E+02
  0.211405525388E+02  0.224114971167E+02  0.237498937313E+02  0.251580848715E+02  0.266383084629E+02
  0.281926614988E+02  0.298230584270E+02  0.315311837841E+02  0.333184385575E+02  0.351858797477E+02
  0.371341526143E+02  0.391634151082E+02  0.412732540371E+02  0.434625925766E+02  0.457295888394E+02
  0.480715253482E+02  0.504846894395E+02  0.529642448635E+02  0.555040951414E+02  0.580967396214E+02
  0.607331236375E+02  0.634024847370E+02  0.660921976252E+02  0.687876212724E+02  0.714719525736E+02
  0.741260920314E+02  0.767285281695E+02  0.792552487635E+02  0.816796884962E+02  0.839727242730E+02
  0.861027311373E+02  0.880357134403E+02  0.897355275476E+02  0.911642137946E+02  0.922824564421E+02
  0.930501908372E+02  0.934273765427E+02  0.933749535306E+02  0.928559952010E+02  0.918370664893E+02
  0.902897870808E+02  0.881925881201E+02  0.855326351147E+02  0.823078693130E+02  0.785290941109E+02
  0.742220016084E+02  0.694289972283E+02  0.642106377868E+02  0.586464518087E+02  0.528348625364E+02
  0.468918877849E+02  0.409482522028E+02  0.351445245764E+02  0.296238961876E+02  0.245222594690E+02
  0.199553457472E+02  0.160028556217E+02  0.126897856370E+02  0.997089706131E+01  0.776391612786E+01
  0.599024542778E+01  0.457899829010E+01  0.346733926012E+01  0.260046883538E+01  0.193132885673E+01
  0.142010147145E+01  0.103356917531E+01  0.744396507556E+00  0.530384284946E+00  0.373736142900E+00
  0.260365964346E+00  0.179264664050E+00  0.121936468858E+00  0.819084334883E-01  0.543122982969E-01
  0.355346469694E-01  0.229293439423E-01  0.145851600227E-01  0.914109872715E-02  0.564203054794E-02
  0.342767707326E-02  0.204863904769E-02  0.120393228586E-02  0.695305924445E-03  0.394410852787E-03
  0.219622722032E-03  0.119980572122E-03  0.642674954664E-04  0.337326377607E-04  0.173383556821E-04
  0.872110220910E-05  0.428976593303E-05  0.206192194152E-05  0.967718768006E-06  0.443109011324E-06
  0.197782251870E-06  0.859796623538E-07
 local pseudopotential core
 -0.175283638451E+03 -0.175284571849E+03 -0.175285475849E+03 -0.175286351376E+03 -0.175287199328E+03
 -0.175288020573E+03 -0.175288815952E+03 -0.175289586278E+03 -0.175290332342E+03 -0.175291054906E+03
 -0.175291754711E+03 -0.175292432474E+03 -0.175293088887E+03 -0.175293724624E+03 -0.175294340336E+03
 -0.175294936652E+03 -0.175295514183E+03 -0.175296073521E+03 -0.175296615238E+03 -0.175297139888E+03
 -0.175297648010E+03 -0.175298140122E+03 -0.175298616729E+03 -0.175299078319E+03 -0.175299525364E+03
 -0.175299958321E+03 -0.175300377634E+03 -0.175300783732E+03 -0.175301177030E+03 -0.175301557931E+03
 -0.175301926824E+03 -0.175302284087E+03 -0.175302630086E+03 -0.175302965174E+03 -0.175303289693E+03
 -0.175303603977E+03 -0.175303908345E+03 -0.175304203109E+03 -0.175304488572E+03 -0.175304765023E+03
 -0.175305032745E+03 -0.175305292013E+03 -0.175305543090E+03 -0.175305786233E+03 -0.175306021690E+03
 -0.175306249702E+03 -0.175306470500E+03 -0.175306684310E+03 -0.175306891349E+03 -0.175307091829E+03
 -0.175307285953E+03 -0.175307473919E+03 -0.175307655917E+03 -0.175307832133E+03 -0.175308002745E+03
 -0.175308167926E+03 -0.175308327844E+03 -0.175308482660E+03 -0.175308632530E+03 -0.175308777605E+03
 -0.175308918033E+03 -0.175309053953E+03 -0.175309185502E+03 -0.175309312812E+03 -0.175309436010E+03
 -0.175309555218E+03 -0.175309670556E+03 -0.175309782136E+03 -0.175309890070E+03 -0.175309994464E+03
 -0.175310095419E+03 -0.175310193034E+03 -0.175310287404E+03 -0.175310378619E+03 -0.175310466766E+03
 -0.175310551930E+03 -0.175310634191E+03 -0.175310713625E+03 -0.175310790306E+03 -0.175310864304E+03
 -0.175310935685E+03 -0.175311004514E+03 -0.175311070851E+03 -0.175311134752E+03 -0.175311196271E+03
 -0.175311255459E+03 -0.175311312364E+03 -0.175311367029E+03 -0.175311419496E+03 -0.175311469802E+03
 -0.175311517981E+03 -0.175311564066E+03 -0.175311608083E+03 -0.175311650057E+03 -0.175311690009E+03
 -0.175311727956E+03 -0.175311763912E+03 -0.175311797888E+03 -0.175311829889E+03 -0.175311859919E+03
 -0.175311887974E+03 -0.175311914050E+03 -0.175311938137E+03 -0.175311960219E+03 -0.175311980279E+03
 -0.175311998291E+03 -0.175312014226E+03 -0.175312028051E+03 -0.175312039725E+03 -0.175312049203E+03
 -0.175312056433E+03 -0.175312061357E+03 -0.175312063910E+03 -0.175312064021E+03 -0.175312061610E+03
 -0.175312056590E+03 -0.175312048866E+03 -0.175312038335E+03 -0.175312024882E+03 -0.175312008385E+03
 -0.175311988710E+03 -0.175311965714E+03 -0.175311939240E+03 -0.175311909120E+03 -0.175311875173E+03
 -0.175311837204E+03 -0.175311795003E+03 -0.175311748344E+03 -0.175311696986E+03 -0.175311640668E+03
 -0.175311579113E+03 -0.175311512021E+03 -0.175311439074E+03 -0.175311359929E+03 -0.175311274219E+03
 -0.175311181553E+03 -0.175311081512E+03 -0.175310973647E+03 -0.175310857481E+03 -0.175310732500E+03
 -0.175310598159E+03 -0.175310453873E+03 -0.175310299019E+03 -0.175310132931E+03 -0.175309954897E+03
 -0.175309764160E+03 -0.175309559908E+03 -0.175309341277E+03 -0.175309107345E+03 -0.175308857127E+03
 -0.175308589574E+03 -0.175308303564E+03 -0.175307997902E+03 -0.175307671313E+03 -0.175307322437E+03
 -0.175306949823E+03 -0.175306551925E+03 -0.175306127091E+03 -0.175305673562E+03 -0.175305189461E+03
 -0.175304672787E+03 -0.175304121405E+03 -0.175303533040E+03 -0.175302905265E+03 -0.175302235493E+03
 -0.175301520964E+03 -0.175300758736E+03 -0.175299945673E+03 -0.175299078430E+03 -0.175298153442E+03
 -0.175297166907E+03 -0.175296114771E+03 -0.175294992713E+03 -0.175293796126E+03 -0.175292520097E+03
 -0.175291159391E+03 -0.175289708423E+03 -0.175288161242E+03 -0.175286511503E+03 -0.175284752441E+03
 -0.175282876844E+03 -0.175280877024E+03 -0.175278744786E+03 -0.175276471392E+03 -0.175274047527E+03
 -0.175271463263E+03 -0.175268708016E+03 -0.175265770501E+03 -0.175262638690E+03 -0.175259299762E+03
 -0.175255740049E+03 -0.175251944980E+03 -0.175247899027E+03 -0.175243585633E+03 -0.175238987152E+03
 -0.175234084775E+03 -0.175228858451E+03 -0.175223286811E+03 -0.175217347074E+03 -0.175211014962E+03
 -0.175204264597E+03 -0.175197068395E+03 -0.175189396961E+03 -0.175181218961E+03 -0.175172501004E+03
 -0.175163207499E+03 -0.175153300518E+03 -0.175142739642E+03 -0.175131481793E+03 -0.175119481068E+03
 -0.175106688550E+03 -0.175093052111E+03 -0.175078516210E+03 -0.175063021662E+03 -0.175046505407E+03
 -0.175028900257E+03 -0.175010134631E+03 -0.174990132267E+03 -0.174968811921E+03 -0.174946087050E+03
 -0.174921865462E+03 -0.174896048964E+03 -0.174868532966E+03 -0.174839206080E+03 -0.174807949683E+03
 -0.174774637454E+03 -0.174739134888E+03 -0.174701298774E+03 -0.174660976648E+03 -0.174618006207E+03
 -0.174572214693E+03 -0.174523418237E+03 -0.174471421167E+03 -0.174416015276E+03 -0.174356979045E+03
 -0.174294076824E+03 -0.174227057968E+03 -0.174155655921E+03 -0.174079587257E+03 -0.173998550659E+03
 -0.173912225851E+03 -0.173820272478E+03 -0.173722328915E+03 -0.173618011031E+03 -0.173506910883E+03
 -0.173388595354E+03 -0.173262604724E+03 -0.173128451178E+03 -0.172985617255E+03 -0.172833554223E+03
 -0.172671680404E+03 -0.172499379424E+03 -0.172315998413E+03 -0.172120846143E+03 -0.171913191113E+03
 -0.171692259587E+03 -0.171457233590E+03 -0.171207248866E+03 -0.170941392815E+03 -0.170658702408E+03
 -0.170358162112E+03 -0.170038701816E+03 -0.169699194795E+03 -0.169338455727E+03 -0.168955238779E+03
 -0.168548235802E+03 -0.168116074657E+03 -0.167657317706E+03 -0.167170460514E+03 -0.166653930798E+03
 -0.166106087682E+03 -0.165525221297E+03 -0.164909552803E+03 -0.164257234890E+03 -0.163566352832E+03
 -0.162834926181E+03 -0.162060911176E+03 -0.161242203983E+03 -0.160376644851E+03 -0.159462023321E+03
 -0.158496084598E+03 -0.157476537234E+03 -0.156401062282E+03 -0.155267324089E+03 -0.154072982924E+03
 -0.152815709679E+03 -0.151493202884E+03 -0.150103208358E+03 -0.148643541847E+03 -0.147112115090E+03
 -0.145506965830E+03 -0.143826292398E+03 -0.142068493632E+03 -0.140232215009E+03 -0.138316402023E+03
 -0.136320361924E+03 -0.134243834920E+03 -0.132087075697E+03 -0.129850945439E+03 -0.127537012950E+03
 -0.125147660425E+03 -0.122686183622E+03 -0.120156865820E+03 -0.117564987156E+03 -0.114916702495E+03
 -0.112218680363E+03 -0.109477350719E+03 -0.106697594585E+03 -0.103880808772E+03 -0.101022634697E+03
 -0.981113532085E+02 -0.951288009770E+02 -0.921681401576E+02 -0.893201080639E+02 -0.865753158673E+02
 -0.839333823094E+02 -0.813538006343E+02 -0.786840426672E+02 -0.757993255308E+02 -0.734029022641E+02
 -0.711246942158E+02 -0.689179524267E+02 -0.667609456295E+02 -0.646406192963E+02 -0.625985746470E+02
 -0.606231464254E+02 -0.587110588903E+02 -0.568600213264E+02 -0.550678839279E+02 -0.533326228265E+02
 -0.516523211724E+02 -0.500251553492E+02 -0.484493868508E+02 -0.469233485280E+02 -0.454454408239E+02
 -0.440141245274E+02 -0.426279168704E+02 -0.412853855500E+02 -0.399851481962E+02 -0.387258679357E+02
 -0.375062514788E+02 -0.363250482452E+02 -0.351810469855E+02 -0.340730753620E+02 -0.329999979793E+02
 -0.319607161139E+02 -0.309541646535E+02 -0.299793129287E+02 -0.290351625140E+02 -0.281207465206E+02
 -0.272351284856E+02 -0.263774014832E+02 -0.255466871407E+02 -0.247421347666E+02 -0.239629204572E+02
 -0.232082462513E+02 -0.224773393165E+02
 pspotential valence only
 -0.106266730218E+03 -0.106267663624E+03 -0.106268567632E+03 -0.106269443169E+03 -0.106270291130E+03
 -0.106271112385E+03 -0.106271907775E+03 -0.106272678113E+03 -0.106273424189E+03 -0.106274146767E+03
 -0.106274846586E+03 -0.106275524363E+03 -0.106276180793E+03 -0.106276816547E+03 -0.106277432277E+03
 -0.106278028612E+03 -0.106278606164E+03 -0.106279165524E+03 -0.106279707264E+03 -0.106280231940E+03
 -0.106280740088E+03 -0.106281232229E+03 -0.106281708866E+03 -0.106282170488E+03 -0.106282617568E+03
 -0.106283050562E+03 -0.106283469914E+03 -0.106283876053E+03 -0.106284269396E+03 -0.106284650344E+03
 -0.106285019289E+03 -0.106285376606E+03 -0.106285722662E+03 -0.106286057811E+03 -0.106286382396E+03
 -0.106286696749E+03 -0.106287001192E+03 -0.106287296036E+03 -0.106287581582E+03 -0.106287858123E+03
 -0.106288125942E+03 -0.106288385312E+03 -0.106288636498E+03 -0.106288879758E+03 -0.106289115339E+03
 -0.106289343483E+03 -0.106289564422E+03 -0.106289778383E+03 -0.106289985582E+03 -0.106290186233E+03
 -0.106290380539E+03 -0.106290568699E+03 -0.106290750905E+03 -0.106290927341E+03 -0.106291098189E+03
 -0.106291263621E+03 -0.106291423806E+03 -0.106291578907E+03 -0.106291729081E+03 -0.106291874481E+03
 -0.106292015253E+03 -0.106292151542E+03 -0.106292283484E+03 -0.106292411212E+03 -0.106292534856E+03
 -0.106292654540E+03 -0.106292770385E+03 -0.106292882507E+03 -0.106292991017E+03 -0.106293096026E+03
 -0.106293197636E+03 -0.106293295950E+03 -0.106293391064E+03 -0.106293483073E+03 -0.106293572067E+03
 -0.106293658133E+03 -0.106293741356E+03 -0.106293821815E+03 -0.106293899590E+03 -0.106293974753E+03
 -0.106294047378E+03 -0.106294117531E+03 -0.106294185280E+03 -0.106294250687E+03 -0.106294313812E+03
 -0.106294374711E+03 -0.106294433440E+03 -0.106294490050E+03 -0.106294544591E+03 -0.106294597107E+03
 -0.106294647644E+03 -0.106294696241E+03 -0.106294742936E+03 -0.106294787766E+03 -0.106294830762E+03
 -0.106294871955E+03 -0.106294911371E+03 -0.106294949036E+03 -0.106294984969E+03 -0.106295019191E+03
 -0.106295051716E+03 -0.106295082557E+03 -0.106295111724E+03 -0.106295139222E+03 -0.106295165055E+03
 -0.106295189222E+03 -0.106295211719E+03 -0.106295232539E+03 -0.106295251671E+03 -0.106295269100E+03
 -0.106295284806E+03 -0.106295298767E+03 -0.106295310954E+03 -0.106295321335E+03 -0.106295329873E+03
 -0.106295336527E+03 -0.106295341248E+03 -0.106295343983E+03 -0.106295344674E+03 -0.106295343256E+03
 -0.106295339656E+03 -0.106295333798E+03 -0.106295325594E+03 -0.106295314952E+03 -0.106295301770E+03
 -0.106295285938E+03 -0.106295267338E+03 -0.106295245840E+03 -0.106295221305E+03 -0.106295193583E+03
 -0.106295162514E+03 -0.106295127924E+03 -0.106295089626E+03 -0.106295047420E+03 -0.106295001091E+03
 -0.106294950408E+03 -0.106294895125E+03 -0.106294834977E+03 -0.106294769680E+03 -0.106294698932E+03
 -0.106294622407E+03 -0.106294539759E+03 -0.106294450616E+03 -0.106294354582E+03 -0.106294251232E+03
 -0.106294140115E+03 -0.106294020746E+03 -0.106293892607E+03 -0.106293755149E+03 -0.106293607781E+03
 -0.106293449874E+03 -0.106293280757E+03 -0.106293099714E+03 -0.106292905981E+03 -0.106292698741E+03
 -0.106292477124E+03 -0.106292240202E+03 -0.106291986983E+03 -0.106291716412E+03 -0.106291427361E+03
 -0.106291118627E+03 -0.106290788928E+03 -0.106290436898E+03 -0.106290061077E+03 -0.106289659910E+03
 -0.106289231738E+03 -0.106288774793E+03 -0.106288287188E+03 -0.106287766913E+03 -0.106287211824E+03
 -0.106286619633E+03 -0.106285987904E+03 -0.106285314037E+03 -0.106284595260E+03 -0.106283828620E+03
 -0.106283010965E+03 -0.106282138939E+03 -0.106281208960E+03 -0.106280217211E+03 -0.106279159623E+03
 -0.106278031858E+03 -0.106276829290E+03 -0.106275546990E+03 -0.106274179702E+03 -0.106272721822E+03
 -0.106271167379E+03 -0.106269510004E+03 -0.106267742912E+03 -0.106265858867E+03 -0.106263850158E+03
 -0.106261708564E+03 -0.106259425322E+03 -0.106256991094E+03 -0.106254395923E+03 -0.106251629198E+03
 -0.106248679610E+03 -0.106245535104E+03 -0.106242182832E+03 -0.106238609099E+03 -0.106234799313E+03
 -0.106230737919E+03 -0.106226408340E+03 -0.106221792911E+03 -0.106216872806E+03 -0.106211627964E+03
 -0.106206037005E+03 -0.106200077150E+03 -0.106193724125E+03 -0.106186952064E+03 -0.106179733411E+03
 -0.106172038803E+03 -0.106163836961E+03 -0.106155094557E+03 -0.106145776091E+03 -0.106135843745E+03
 -0.106125257235E+03 -0.106113973655E+03 -0.106101947307E+03 -0.106089129522E+03 -0.106075468472E+03
 -0.106060908968E+03 -0.106045392247E+03 -0.106028855747E+03 -0.106011232864E+03 -0.105992452702E+03
 -0.105972439798E+03 -0.105951113844E+03 -0.105928389380E+03 -0.105904175476E+03 -0.105878375397E+03
 -0.105850886245E+03 -0.105821598580E+03 -0.105790396028E+03 -0.105757154860E+03 -0.105721743550E+03
 -0.105684022312E+03 -0.105643842612E+03 -0.105601046659E+03 -0.105555466859E+03 -0.105506925260E+03
 -0.105455232958E+03 -0.105400189484E+03 -0.105341582156E+03 -0.105279185418E+03 -0.105212760137E+03
 -0.105142052887E+03 -0.105066795201E+03 -0.104986702802E+03 -0.104901474811E+03 -0.104810792935E+03
 -0.104714320642E+03 -0.104611702311E+03 -0.104502562388E+03 -0.104386504522E+03 -0.104263110709E+03
 -0.104131940447E+03 -0.103992529894E+03 -0.103844391067E+03 -0.103687011062E+03 -0.103519851329E+03
 -0.103342347007E+03 -0.103153906339E+03 -0.102953910177E+03 -0.102741711609E+03 -0.102516635722E+03
 -0.102277979530E+03 -0.102025012096E+03 -0.101756974875E+03 -0.101473082326E+03 -0.101172522808E+03
 -0.100854459825E+03 -0.100518033655E+03 -0.100162363409E+03 -0.997865495875E+02 -0.993896771675E+02
 -0.989708193134E+02 -0.985290417508E+02 -0.980634078890E+02 -0.975729847620E+02 -0.970568498706E+02
 -0.965140990116E+02 -0.959438551868E+02 -0.953452786947E+02 -0.947175785166E+02 -0.940600251239E+02
 -0.933719648503E+02 -0.926528360002E+02 -0.919021868943E+02 -0.911196961006E+02 -0.903051951530E+02
 -0.894586941376E+02 -0.885804106138E+02 -0.876708024482E+02 -0.867306052560E+02 -0.857608752602E+02
 -0.847630384506E+02 -0.837389468943E+02 -0.826909427858E+02 -0.816219301118E+02 -0.805354522413E+02
 -0.794357706537E+02 -0.783279342272E+02 -0.772178181202E+02 -0.761120935132E+02 -0.750180610144E+02
 -0.739432399493E+02 -0.728945610296E+02 -0.718769951833E+02 -0.708915516241E+02 -0.699329340886E+02
 -0.689878572168E+02 -0.680358788670E+02 -0.670547288703E+02 -0.660300779171E+02 -0.649640802064E+02
 -0.638668833613E+02 -0.627075226680E+02 -0.613421684402E+02 -0.596541440354E+02 -0.583545196993E+02
 -0.570810193505E+02 -0.557948387864E+02 -0.544823009359E+02 -0.531383587898E+02 -0.518122916986E+02
 -0.504995550946E+02 -0.492032547877E+02 -0.479266703637E+02 -0.466724405731E+02 -0.454426186858E+02
 -0.442387496947E+02 -0.430619434396E+02 -0.419129267761E+02 -0.407920689678E+02 -0.396993854410E+02
 -0.386345320573E+02 -0.375968029279E+02 -0.365851476460E+02 -0.355982223655E+02 -0.346344774661E+02
 -0.336922766959E+02 -0.327700342591E+02 -0.318663489947E+02 -0.309801176205E+02 -0.301106128864E+02
 -0.292575199105E+02 -0.284209324968E+02 -0.276013113738E+02 -0.267994145762E+02 -0.260162048130E+02
 -0.252527417385E+02 -0.245100664159E+02 -0.237890868069E+02 -0.230904748621E+02 -0.224145867225E+02
 -0.217614162710E+02 -0.211305881169E+02
 core charge-density (pseudized)
  0.178643580041E-07  0.190450562707E-07  0.203037897171E-07  0.216457158755E-07  0.230763331515E-07
  0.246015033537E-07  0.262274757117E-07  0.279609124816E-07  0.298089162438E-07  0.317790590055E-07
  0.338794132259E-07  0.361185848923E-07  0.385057487824E-07  0.410506860566E-07  0.437638243361E-07
  0.466562804282E-07  0.497399058766E-07  0.530273355220E-07  0.565320392718E-07  0.602683772920E-07
  0.642516588460E-07  0.684982050232E-07  0.730254156127E-07  0.778518403973E-07  0.829972551591E-07
  0.884827427091E-07  0.943307792714E-07  0.100565326577E-06  0.107211930046E-06  0.114297823455E-06
  0.121852040526E-06  0.129905533889E-06  0.138491301908E-06  0.147644523885E-06  0.157402704209E-06
  0.167805826019E-06  0.178896515039E-06  0.190720214225E-06  0.203325369967E-06  0.216763630593E-06
  0.231090057988E-06  0.246363353211E-06  0.262646097010E-06  0.280005006244E-06  0.298511207246E-06
  0.318240527256E-06  0.339273805114E-06  0.361697222490E-06  0.385602657004E-06  0.411088058680E-06
  0.438257851290E-06  0.467223360220E-06  0.498103268605E-06  0.531024103629E-06  0.566120754949E-06
  0.603537027394E-06  0.643426230185E-06  0.685951805106E-06  0.731287996181E-06  0.779620563625E-06
  0.831147544967E-06  0.886080066493E-06  0.944643208299E-06  0.100707692654E-05  0.107363703661E-05
  0.114459626132E-05  0.122024534835E-05  0.130089426151E-05  0.138687345085E-05  0.147853520656E-05
  0.157625510246E-05  0.168043353488E-05  0.179149736319E-05  0.190990165883E-05  0.203613156985E-05
  0.217070430880E-05  0.231417127185E-05  0.246712029811E-05  0.263017807817E-05  0.280401272187E-05
  0.298933649578E-05  0.318690874155E-05  0.339753898721E-05  0.362209026408E-05  0.386148264279E-05
  0.411669700318E-05  0.438877905322E-05  0.467884361356E-05  0.498807918529E-05  0.531775281955E-05
  0.566921530898E-05  0.604390672224E-05  0.644336230437E-05  0.686921876703E-05  0.732322099448E-05
  0.780722919276E-05  0.832322651135E-05  0.887332716846E-05  0.945978511342E-05  0.100850032615E-04
  0.107515433388E-04  0.114621363784E-04  0.122196939092E-04  0.130273198853E-04  0.138883234025E-04
  0.148062322564E-04  0.157848073957E-04  0.168280583305E-04  0.179402595599E-04  0.191259680837E-04
  0.203900420726E-04  0.217376607714E-04  0.231743457175E-04  0.247059833619E-04  0.263388491849E-04
  0.280796334045E-04  0.299354683850E-04  0.319139578552E-04  0.340232080586E-04  0.362718609603E-04
  0.386691296494E-04  0.412248360796E-04  0.439494513038E-04  0.468541383666E-04  0.499507980309E-04
  0.532521175254E-04  0.567716225124E-04  0.605237324888E-04  0.645238198472E-04  0.687882728376E-04
  0.733345626893E-04  0.781813151655E-04  0.833483868442E-04  0.888569464380E-04  0.947295614838E-04
  0.100990290758E-03  0.107664782796E-03  0.114780380914E-03  0.122366235168E-03  0.130453421708E-03
  0.139075070006E-03  0.148266498485E-03  0.158065359109E-03  0.168511791504E-03  0.179648587264E-03
  0.191521365091E-03  0.204178757498E-03  0.217672609832E-03  0.232058192422E-03  0.247394426728E-03
  0.263744126405E-03  0.281174254266E-03  0.299756196186E-03  0.319566053072E-03  0.340684952075E-03
  0.363199378315E-03  0.387201528469E-03  0.412789687653E-03  0.440068631129E-03  0.469150052471E-03
  0.500153019918E-03  0.533204462773E-03  0.568439689803E-03  0.606002941748E-03  0.646047980169E-03
  0.688738715008E-03  0.734249873399E-03  0.782767712410E-03  0.834490778606E-03  0.889630717466E-03
  0.948413135910E-03  0.101107852140E-02  0.107788322129E-02  0.114910048634E-02  0.122502158251E-02
  0.130595697561E-02  0.139223759330E-02  0.148421616963E-02  0.158226867734E-02  0.168679585363E-02
  0.179822482532E-02  0.191701083999E-02  0.204363910958E-02  0.217862677391E-02  0.232252499164E-02
  0.247592116682E-02  0.263944131959E-02  0.281375261018E-02  0.299956602589E-02  0.319763924134E-02
  0.340877966268E-02  0.363384766744E-02  0.387376005210E-02  0.412949370019E-02  0.440208948456E-02
  0.469265641822E-02  0.500237606871E-02  0.533250725222E-02  0.568439102414E-02  0.605945598370E-02
  0.645922391160E-02  0.688531575985E-02  0.733945801468E-02  0.782348945392E-02  0.833936832134E-02
  0.888917994162E-02  0.947514480037E-02  0.100996271150E-01  0.107651439226E-01  0.114743747128E-01
  0.122301716342E-01  0.130355703022E-01  0.138938012410E-01  0.148083019880E-01  0.157827298931E-01
  0.168209756450E-01  0.179271775553E-01  0.191057366335E-01  0.203613324831E-01  0.216989400515E-01
  0.231238472616E-01  0.246416735549E-01  0.262583893711E-01  0.279803365888E-01  0.298142499458E-01
  0.317672794555E-01  0.338470138291E-01  0.360615049064E-01  0.384192930912E-01  0.409294337766E-01
  0.436015247348E-01  0.464457344319E-01  0.494728312128E-01  0.526942132832E-01  0.561219393929E-01
  0.597687601013E-01  0.636481494757E-01  0.677743370394E-01  0.721623397514E-01  0.768279937503E-01
  0.817879855508E-01  0.870598823186E-01  0.926621607891E-01  0.986142343187E-01  0.104936477474E+00
  0.111650247475E+00  0.118777901692E+00  0.126342810292E+00  0.134369362984E+00  0.142882968672E+00
  0.151910046656E+00  0.161478007846E+00  0.171615224231E+00  0.182350984660E+00  0.193715434709E+00
  0.205739498169E+00  0.218454777389E+00  0.231893429410E+00  0.246088014483E+00  0.261071313218E+00
  0.276876108242E+00  0.293534925857E+00  0.311079732804E+00  0.329541582827E+00  0.348950207379E+00
  0.369333544398E+00  0.390717198797E+00  0.413123828021E+00  0.436572445820E+00  0.461077637342E+00
  0.486648678695E+00  0.513288554427E+00  0.540992866871E+00  0.569748632181E+00  0.599532959083E+00
  0.630311608141E+00  0.662037431606E+00  0.694648696958E+00  0.728067301107E+00  0.762196887048E+00
  0.796920880723E+00  0.832100473150E+00  0.867572581583E+00  0.903147833859E+00  0.938608632238E+00
  0.973707367079E+00  0.100816486671E+01  0.104166918777E+01  0.107387487010E+01  0.110440280143E+01
  0.113284085950E+01  0.115874552166E+01  0.118164465348E+01  0.120104170705E+01  0.121642157363E+01
  0.122725834231E+01  0.123302521135E+01  0.123320677896E+01  0.122731389849E+01  0.121490121359E+01
  0.119558738440E+01  0.116907786744E+01  0.113518991106E+01  0.109387916646E+01  0.104526698321E+01
  0.989667052880E+00  0.927609583016E+00  0.859860632168E+00  0.787433629698E+00  0.711589471262E+00
  0.633820969819E+00  0.555816924835E+00  0.479400750636E+00  0.406438614854E+00  0.338712554197E+00
  0.277755269878E+00  0.224645504564E+00  0.179766330102E+00  0.142599085032E+00  0.112133698186E+00
  0.873952121078E-01  0.674972152311E-01  0.516462044864E-01  0.391422218785E-01  0.293764614726E-01
  0.218265457712E-01  0.160501383748E-01  0.116774961686E-01  0.840347939673E-02  0.597944295473E-02
  0.420533704582E-02  0.292225715671E-02  0.200560567272E-02  0.135896184830E-02  0.908703325786E-03
  0.599380281641E-03  0.389811650248E-03  0.249850583178E-03  0.157752130793E-03  0.980687715525E-04
  0.599975395079E-04  0.361048043259E-04  0.213600224454E-04  0.124169197097E-04  0.708867303711E-05
  0.397201143202E-05  0.218321794536E-05  0.117641682593E-05  0.621052310692E-06  0.321004485712E-06
  0.162334274077E-06  0.802624399137E-07  0.387695400832E-07  0.182811971565E-07  0.840815214125E-08
  0.376887685000E-08  0.164497846742E-08
 pseudo wavefunction
  0.318416828018E-12  0.350500209494E-12  0.385816282444E-12  0.424690769833E-12  0.467482214166E-12
  0.514585284356E-12  0.566434415785E-12  0.623507817137E-12  0.686331880953E-12  0.755486038596E-12
  0.831608104388E-12  0.915400158222E-12  0.100763502091E-11  0.110916338195E-11  0.122092164552E-11
  0.134394056703E-11  0.147935475979E-11  0.162841315973E-11  0.179249054436E-11  0.197310021248E-11
  0.217190794148E-11  0.239074735090E-11  0.263163681405E-11  0.289679807366E-11  0.318867673315E-11
  0.350996481265E-11  0.386362557771E-11  0.425292086971E-11  0.468144119012E-11  0.515313881592E-11
  0.567236425184E-11  0.624390635532E-11  0.687303650460E-11  0.756555721699E-11  0.832785566596E-11
  0.916696259056E-11  0.100906171405E-10  0.111073382547E-10  0.122265032327E-10  0.134584342214E-10
  0.148144934177E-10  0.163071878626E-10  0.179502847947E-10  0.197589386266E-10  0.217498307148E-10
  0.239413232136E-10  0.263536284304E-10  0.290089952454E-10  0.319319143146E-10  0.351493439493E-10
  0.386909587541E-10  0.425894233184E-10  0.468806934843E-10  0.516043479696E-10  0.568039534058E-10
  0.625274661559E-10  0.688276746195E-10  0.757626861041E-10  0.833964627527E-10  0.917994114718E-10
  0.101049033298E-09  0.111230638198E-09  0.122438131884E-09  0.134774881916E-09  0.148354671069E-09
  0.163302746754E-09  0.179756976187E-09  0.197869117946E-09  0.217806221652E-09  0.239752168674E-09
  0.263909368082E-09  0.290500623475E-09  0.319771187915E-09  0.351991025909E-09  0.387457303303E-09
  0.426497128064E-09  0.469470567213E-09  0.516773967738E-09  0.568843612125E-09  0.626159742210E-09
  0.689250988474E-09  0.758699245619E-09  0.835145039412E-09  0.919293434273E-09  0.101192053611E-08
  0.111388065037E-08  0.122611416133E-08  0.134965620524E-08  0.148564621750E-08  0.163533844157E-08
  0.180011349699E-08  0.198149111277E-08  0.218114414386E-08  0.240091399995E-08  0.264282762872E-08
  0.290911621035E-08  0.320223573571E-08  0.352488965785E-08  0.388005382588E-08  0.427100393112E-08
  0.470134571861E-08  0.517504824274E-08  0.569648047357E-08  0.627045159149E-08  0.690225534193E-08
  0.759771885901E-08  0.836325640866E-08  0.920592854654E-08  0.101335072367E-07  0.111545475311E-07
  0.122784664719E-07  0.135156299424E-07  0.148774482704E-07  0.163764814629E-07  0.180265550437E-07
  0.198428875636E-07  0.218422309561E-07  0.240430250360E-07  0.264655675637E-07  0.291322014442E-07
  0.320675207877E-07  0.352985977305E-07  0.388552321100E-07  0.427702262937E-07  0.470796876996E-07
  0.518233617942E-07  0.570449986419E-07  0.627927563840E-07  0.691196453681E-07  0.760840170237E-07
  0.837501019915E-07  0.921886024684E-07  0.101477344229E-06  0.111701994340E-06  0.122956851173E-06
  0.135345714018E-06  0.148982840300E-06  0.163993999225E-06  0.180517631582E-06  0.198706126377E-06
  0.218727226081E-06  0.240765573433E-06  0.265024414074E-06  0.291727470692E-06  0.321121005953E-06
  0.353476093253E-06  0.389091116184E-06  0.428294519789E-06  0.471447838930E-06  0.518949031697E-06
  0.571236148565E-06  0.628791371107E-06  0.692145457488E-06  0.761882635679E-06  0.838645989482E-06
  0.923143386981E-06  0.101615400602E-05  0.111853551682E-05  0.123123198786E-05  0.135528258786E-05
  0.149183116399E-05  0.164213678439E-05  0.180758534223E-05  0.198970232796E-05  0.219016688733E-05
  0.241082729468E-05  0.265371798353E-05  0.292107829160E-05  0.321537309217E-05  0.353931550191E-05
  0.389589187368E-05  0.428838930414E-05  0.472042590897E-05  0.519598414381E-05  0.571944747697E-05
  0.629564075075E-05  0.692987460179E-05  0.762799434811E-05  0.839643379144E-05  0.924227442815E-05
  0.101733106116E-04  0.111981212631E-04  0.123261487882E-04  0.135677859212E-04  0.149344712922E-04
  0.164387945907E-04  0.180946122875E-04  0.199171749726E-04  0.219232674694E-04  0.241313630074E-04
  0.265617928548E-04  0.292369329602E-04  0.321814092995E-04  0.354223237977E-04  0.389895028768E-04
  0.429157708869E-04  0.472372509002E-04  0.519936955910E-04  0.572288511959E-04  0.629908578425E-04
  0.693326898579E-04  0.763126400234E-04  0.839948521324E-04  0.924499066313E-04  0.101755464594E-03
  0.111996975789E-03  0.123268457166E-03  0.135673348682E-03  0.149325454094E-03  0.164349975032E-03
  0.180884647516E-03  0.199080990916E-03  0.219105680342E-03  0.241142054478E-03  0.265391772011E-03
  0.292076631066E-03  0.321440567388E-03  0.353751848498E-03  0.389305482640E-03  0.428425863084E-03
  0.471469670227E-03  0.518829055979E-03  0.570935137134E-03  0.628261826828E-03  0.691330035743E-03
  0.760712277527E-03  0.837037715877E-03  0.920997693945E-03  0.101335179019E-02  0.111493444843E-02
  0.122666223386E-02  0.134954177084E-02  0.148467842278E-02  0.163328577907E-02  0.179669601878E-02
  0.197637122617E-02  0.217391573799E-02  0.239108960847E-02  0.262982328287E-02  0.289223357657E-02
  0.318064106191E-02  0.349758897071E-02  0.384586372525E-02  0.422851721574E-02  0.464889094615E-02
  0.511064217399E-02  0.561777217178E-02  0.617465673909E-02  0.678607909306E-02  0.745726526248E-02
  0.819392210429E-02  0.900227805264E-02  0.988912669656E-02  0.108618732644E-01  0.119285840685E-01
  0.130980389305E-01  0.143797865710E-01  0.157842028902E-01  0.173225520120E-01  0.190070498790E-01
  0.208509301008E-01  0.228685116416E-01  0.250752678013E-01  0.274878957898E-01  0.301243860035E-01
  0.330040899010E-01  0.361477851187E-01  0.395777361754E-01  0.433177487819E-01  0.473932153827E-01
  0.518311491258E-01  0.566602029641E-01  0.619106700435E-01  0.676144609250E-01  0.738050525217E-01
  0.805174029071E-01  0.877878253777E-01  0.956538143341E-01  0.104153814705E+00  0.113326925786E+00
  0.123212529551E+00  0.133849832727E+00  0.145277311287E+00  0.157532045567E+00  0.170648934028E+00
  0.184659773878E+00  0.199592197461E+00  0.215468454701E+00  0.232304034059E+00  0.250106117725E+00
  0.268871871304E+00  0.288586574309E+00  0.309221605700E+00  0.330732308676E+00  0.353055771336E+00
  0.376108574758E+00  0.399784577794E+00  0.423952828373E+00  0.448455714226E+00  0.473107491231E+00
  0.497693354244E+00  0.521969242007E+00  0.545662592525E+00  0.568474285608E+00  0.590082021230E+00
  0.610145381488E+00  0.628312804266E+00  0.644230651344E+00  0.657554474635E+00  0.667962462939E+00
  0.675170879497E+00  0.678951070184E+00  0.679147328726E+00  0.675694548809E+00  0.668634181453E+00
  0.658126568775E+00  0.644457277505E+00  0.628034662600E+00  0.609375632868E+00  0.589076573868E+00
  0.567766742983E+00  0.546042344425E+00  0.524381084609E+00  0.503039657033E+00  0.482043371306E+00
  0.461398392150E+00  0.441116626591E+00  0.421208513809E+00  0.401683624329E+00  0.382551168602E+00
  0.363820410835E+00  0.345500989851E+00  0.327603153922E+00  0.310137911479E+00  0.293117094976E+00
  0.276553330742E+00  0.260459906775E+00  0.244850533514E+00  0.229738999498E+00  0.215138737636E+00
  0.201062330227E+00  0.187520992554E+00  0.174524081775E+00  0.162078676040E+00  0.150189262546E+00
  0.138857558151E+00  0.128082475936E+00  0.117860224660E+00  0.108184529885E+00  0.990469442151E-01
  0.904372125030E-01  0.823436543020E-01  0.747535268251E-01  0.676533363253E-01  0.610290739685E-01
  0.548663633588E-01  0.491505195115E-01
 ae wavefunction
  0.170389492641E-09  0.186574556665E-09  0.204132479215E-09  0.223193098289E-09  0.243897533695E-09
  0.266399259426E-09  0.290865270143E-09  0.317477354834E-09  0.346433484306E-09  0.377949325538E-09
  0.412259893384E-09  0.449621355260E-09  0.490313000089E-09  0.534639390758E-09  0.582932713136E-09
  0.635555345954E-09  0.692902667687E-09  0.755406124630E-09  0.823536586553E-09  0.897808014597E-09
  0.978781474402E-09  0.106706952356E-08  0.116334101211E-08  0.126832633503E-08  0.138282317857E-08
  0.150770280807E-08  0.164391695081E-08  0.179250532843E-08  0.195460390224E-08  0.213145390060E-08
  0.232441170161E-08  0.253495965534E-08  0.276471793391E-08  0.301545751056E-08  0.328911437420E-08
  0.358780510047E-08  0.391384390907E-08  0.426976135146E-08  0.465832478627E-08  0.508256081559E-08
  0.554577987178E-08  0.605160316343E-08  0.660399220907E-08  0.720728120979E-08  0.786621253649E-08
  0.858597563456E-08  0.937224967791E-08  0.102312503377E-07  0.111697810663E-07  0.121952893357E-07
  0.133159283142E-07  0.145406245111E-07  0.158791519742E-07  0.173422136719E-07  0.189415307758E-07
  0.206899406003E-07  0.226015040567E-07  0.246916235459E-07  0.269771723153E-07  0.294766363995E-07
  0.322102703758E-07  0.352002682890E-07  0.384709512315E-07  0.420489732120E-07  0.459635471000E-07
  0.502466926164E-07  0.549335085356E-07  0.600624714727E-07  0.656757638473E-07  0.718196339122E-07
  0.785447909697E-07  0.859068392370E-07  0.939667541515E-07  0.102791405271E-06  0.112454130357E-06
  0.123035365636E-06  0.134623337783E-06  0.147314823619E-06  0.161215984257E-06  0.176443280916E-06
  0.193124480413E-06  0.211399759164E-06  0.231422915361E-06  0.253362699813E-06  0.277404277193E-06
  0.303750830420E-06  0.332625322148E-06  0.364272428780E-06  0.398960663821E-06  0.436984709225E-06
  0.478667974818E-06  0.524365408300E-06  0.574466580181E-06  0.629399070482E-06  0.689632186659E-06
  0.755681044955E-06  0.828111050704E-06  0.907542816304E-06  0.994657559453E-06  0.109020302834E-05
  0.119500000500E-05  0.130994944284E-05  0.143604029992E-05  0.157435813534E-05  0.172609454253E-05
  0.189255750050E-05  0.207518273157E-05  0.227554616272E-05  0.249537759706E-05  0.273657571164E-05
  0.300122450938E-05  0.329161136470E-05  0.361024681557E-05  0.395988626936E-05  0.434355380557E-05
  0.476456827555E-05  0.522657191827E-05  0.573356173180E-05  0.628992386253E-05  0.690047129754E-05
  0.757048517485E-05  0.830576005128E-05  0.911265350332E-05  0.999814046772E-05  0.109698727681E-04
  0.120362443130E-04  0.132064624969E-04  0.144906263828E-04  0.158998122966E-04  0.174461675248E-04
  0.191430128626E-04  0.210049548320E-04  0.230480084615E-04  0.252897315942E-04  0.277493717847E-04
  0.304480269293E-04  0.334088208821E-04  0.366570954144E-04  0.402206199944E-04  0.441298209904E-04
  0.484180320395E-04  0.531217674730E-04  0.582810208460E-04  0.639395907966E-04  0.701454366420E-04
  0.769510663201E-04  0.844139594999E-04  0.925970289148E-04  0.101569123219E-03  0.111405574936E-03
  0.122188797345E-03  0.134008934460E-03  0.146964568583E-03  0.161163490244E-03  0.176723535725E-03
  0.193773497742E-03  0.212454115284E-03  0.232919149043E-03  0.255336549320E-03  0.279889723813E-03
  0.306778913177E-03  0.336222682810E-03  0.368459539868E-03  0.403749685128E-03  0.442376909921E-03
  0.484650649001E-03  0.530908200887E-03  0.581517127897E-03  0.636877848793E-03  0.697426437692E-03
  0.763637643580E-03  0.836028145578E-03  0.915160059755E-03  0.100164471409E-02  0.109614670882E-02
  0.119938828025E-02  0.131215398649E-02  0.143529573453E-02  0.156973816833E-02  0.171648443830E-02
  0.187662237276E-02  0.205133107231E-02  0.224188794829E-02  0.244967622627E-02  0.267619293562E-02
  0.292305740534E-02  0.319202028637E-02  0.348497311887E-02  0.380395846237E-02  0.415118060479E-02
  0.452901686433E-02  0.494002949590E-02  0.538697821084E-02  0.587283331501E-02  0.640078946666E-02
  0.697428005032E-02  0.759699215791E-02  0.827288216192E-02  0.900619185853E-02  0.980146515074E-02
  0.106635652327E-01  0.115976922266E-01  0.126094012132E-01  0.137046205842E-01  0.148896706334E-01
  0.161712822879E-01  0.175566158684E-01  0.190532797488E-01  0.206693487736E-01  0.224133822718E-01
  0.242944414902E-01  0.263221062559E-01  0.285064906550E-01  0.308582575027E-01  0.333886313551E-01
  0.361094097854E-01  0.390329726082E-01  0.421722886764E-01  0.455409197868E-01  0.491530211214E-01
  0.530233375110E-01  0.571671946746E-01  0.616004844807E-01  0.663396432647E-01  0.714016223320E-01
  0.768038500152E-01  0.825641849916E-01  0.887008609469E-01  0.952324230021E-01  0.102177656498E+00
  0.109555508666E+00  0.117385003351E+00  0.125685148374E+00  0.134474834594E+00  0.143772725434E+00
  0.153597135774E+00  0.163965899532E+00  0.174896225619E+00  0.186404542367E+00  0.198506330573E+00
  0.211215945384E+00  0.224546427232E+00  0.238509302124E+00  0.253114371746E+00  0.268369494108E+00
  0.284280355780E+00  0.300850237188E+00  0.318079772827E+00  0.335966708810E+00  0.354505660584E+00
  0.373687874219E+00  0.393500995163E+00  0.413928848755E+00  0.434951237130E+00  0.456543757248E+00
  0.478677644678E+00  0.501319647304E+00  0.524431932460E+00  0.547972030184E+00  0.571892814861E+00
  0.596142528005E+00  0.620664847594E+00  0.645399015386E+00  0.670280043974E+00  0.695239039496E+00
  0.720203688920E+00  0.745098959482E+00  0.769848014621E+00  0.794373228593E+00  0.818596961978E+00
  0.842441517732E+00  0.865827673943E+00  0.888671702621E+00  0.910881907356E+00  0.932356829066E+00
  0.952987055847E+00  0.972660295128E+00  0.991266942871E+00  0.100870364753E+01  0.102487460944E+01
  0.103969174976E+01  0.105307476023E+01  0.106495145107E+01  0.107525841320E+01  0.108394184650E+01
  0.109095837367E+01  0.109627569212E+01  0.109987298084E+01  0.110174102967E+01  0.110188210977E+01
  0.110030961751E+01  0.109704753646E+01  0.109212975959E+01  0.108559931183E+01  0.107750750484E+01
  0.106791305336E+01  0.105688117784E+01  0.104448270915E+01  0.103079321309E+01  0.101589214077E+01
  0.999862012056E+00  0.982787632149E+00  0.964755341667E+00  0.945852296863E+00  0.926165778962E+00
  0.905782532550E+00  0.884788137490E+00  0.863266422110E+00  0.841298926194E+00  0.818964430744E+00
  0.796338561966E+00  0.773493477437E+00  0.750497630794E+00  0.727415602508E+00  0.704307972667E+00
  0.681231207410E+00  0.658237532146E+00  0.635374777714E+00  0.612686208554E+00  0.590210369480E+00
  0.567981005816E+00  0.546027119416E+00  0.524373202610E+00  0.503039657033E+00  0.482043371306E+00
  0.461398392150E+00  0.441116626591E+00  0.421208513809E+00  0.401683624329E+00  0.382551168602E+00
  0.363820410835E+00  0.345500989851E+00  0.327603153922E+00  0.310137911479E+00  0.293117094976E+00
  0.276553330742E+00  0.260459906775E+00  0.244850533514E+00  0.229738999498E+00  0.215138737636E+00
  0.201062330227E+00  0.187520992554E+00  0.174524081775E+00  0.162078676040E+00  0.150189262546E+00
  0.138857558151E+00  0.128082475936E+00  0.117860224660E+00  0.108184529885E+00  0.990469442151E-01
  0.904372125030E-01  0.823436543020E-01  0.747535268251E-01  0.676533363253E-01  0.610290739685E-01
  0.548663633588E-01  0.491505195115E-01
 pseudo wavefunction
  0.312622341207E-12  0.344121875620E-12  0.378795273624E-12  0.416962330742E-12  0.458975064794E-12
  0.505220962585E-12  0.556126553727E-12  0.612161344558E-12  0.673842148432E-12  0.741737852333E-12
  0.816474663763E-12  0.898741886308E-12  0.989298277133E-12  0.108897904506E-11  0.119870355379E-11
  0.131948380121E-11  0.145243375319E-11  0.159877961776E-11  0.175987115450E-11  0.193719412352E-11
  0.213238398869E-11  0.234724100173E-11  0.258374680599E-11  0.284408271337E-11  0.313064982268E-11
  0.344609116521E-11  0.379331608158E-11  0.417552705486E-11  0.459624924726E-11  0.505936301304E-11
  0.556913968730E-11  0.613028098084E-11  0.674796234438E-11  0.742788070221E-11  0.817630699531E-11
  0.900014401875E-11  0.990699008673E-11  0.109052091124E-10  0.120040077488E-10  0.132135203028E-10
  0.145449022042E-10  0.160104328935E-10  0.176236290760E-10  0.193993693871E-10  0.213540316197E-10
  0.235056437773E-10  0.258740503480E-10  0.284810953314E-10  0.313508237078E-10  0.345097032066E-10
  0.379868684204E-10  0.418143895152E-10  0.460275680164E-10  0.506652623967E-10  0.557702464714E-10
  0.613896039039E-10  0.675751624621E-10  0.743839720293E-10  0.818788307797E-10  0.901288643702E-10
  0.992101634913E-10  0.109206485657E-09  0.120210027706E-09  0.132322276139E-09  0.145654943138E-09
  0.160330996890E-09  0.176485795737E-09  0.194268336591E-09  0.213842629143E-09  0.235389208534E-09
  0.259106800444E-09  0.285214153949E-09  0.313952059057E-09  0.345585567529E-09  0.380406437468E-09
  0.418735824216E-09  0.460927242391E-09  0.507369826368E-09  0.558491919288E-09  0.614765023684E-09
  0.676708150172E-09  0.744892604311E-09  0.819947255775E-09  0.902564338441E-09  0.993505834893E-09
  0.109361050421E-08  0.120380161786E-08  0.132509547507E-08  0.145861077616E-08  0.160557894038E-08
  0.176735546324E-08  0.194543241832E-08  0.214145221865E-08  0.235722276470E-08  0.259473411863E-08
  0.285617685861E-08  0.314396228253E-08  0.346074464730E-08  0.380944564901E-08  0.419328136966E-08
  0.461579193891E-08  0.508087418453E-08  0.559281757264E-08  0.615634376912E-08  0.677665018723E-08
  0.745945792283E-08  0.821106451954E-08  0.903840205025E-08  0.994910105080E-08  0.109515608953E-07
  0.120550272625E-07  0.132696774068E-07  0.146067140216E-07  0.160784685590E-07  0.176985149608E-07
  0.194817948471E-07  0.214447553192E-07  0.236055006466E-07  0.259839592374E-07  0.286020674308E-07
  0.314839718087E-07  0.346562518901E-07  0.381481652627E-07  0.419919174126E-07  0.462229587399E-07
  0.508803114992E-07  0.560069296795E-07  0.616500951436E-07  0.678618536770E-07  0.746994949706E-07
  0.822260809601E-07  0.905110273952E-07  0.996307440016E-07  0.109669339137E-06  0.120719395438E-06
  0.132882823614E-06  0.146271802248E-06  0.161009812290E-06  0.177232775754E-06  0.195090309142E-06
  0.214747103128E-06  0.236384441241E-06  0.260201871531E-06  0.286419046635E-06  0.315277749206E-06
  0.347044121365E-06  0.382011118741E-06  0.420501211696E-06  0.462869358651E-06  0.509506278900E-06
  0.560842055075E-06  0.617350098466E-06  0.679551513723E-06  0.748019903154E-06  0.823386654899E-06
  0.906346763664E-06  0.997665237675E-06  0.109818415082E-05  0.120883040498E-05  0.133062427397E-05
  0.146468880785E-05  0.161226018408E-05  0.177469910097E-05  0.195350331813E-05  0.215032145945E-05
  0.236696820569E-05  0.260544101621E-05  0.286793853410E-05  0.315688084356E-05  0.347493176614E-05
  0.382502340078E-05  0.421038313317E-05  0.463456336272E-05  0.510147422042E-05  0.561541957791E-05
  0.618113667877E-05  0.680383975570E-05  0.748926803407E-05  0.824373856227E-05  0.907420435358E-05
  0.998831837252E-05  0.109945039525E-04  0.121020322894E-04  0.133211077219E-04  0.146629615777E-04
  0.161399554459E-04  0.177656948183E-04  0.195551541401E-04  0.215248144106E-04  0.236928145906E-04
  0.260791181982E-04  0.287056966102E-04  0.315967307399E-04  0.347788329264E-04  0.382812910516E-04
  0.421363371045E-04  0.463794426282E-04  0.510496437280E-04  0.561898985841E-04  0.618474807002E-04
  0.680744114408E-04  0.749279357568E-04  0.824710453833E-04  0.907730542131E-04  0.999102310091E-04
  0.109966495123E-03  0.121034181441E-03  0.133214881378E-03  0.146620367410E-03  0.161373609349E-03
  0.177609891364E-03  0.195478039611E-03  0.215141771288E-03  0.236781176947E-03  0.260594349032E-03
  0.286799170850E-03  0.315635281484E-03  0.347366233656E-03  0.382281863092E-03  0.420700889705E-03
  0.462973772734E-03  0.509485844048E-03  0.560660745996E-03  0.616964202572E-03  0.678908155224E-03
  0.747055297429E-03  0.822024045118E-03  0.904493983260E-03  0.995211832361E-03  0.109499798231E-02
  0.120475364498E-02  0.132546868109E-02  0.145823016139E-02  0.160423172701E-02  0.176478381833E-02
  0.194132484766E-02  0.213543339569E-02  0.234884151774E-02  0.258344925137E-02  0.284134042296E-02
  0.312479985644E-02  0.343633209349E-02  0.377868174007E-02  0.415485555944E-02  0.456814643687E-02
  0.502215934540E-02  0.552083944538E-02  0.606850245251E-02  0.666986740993E-02  0.733009199815E-02
  0.805481051281E-02  0.885017463335E-02  0.972289709459E-02  0.106802983581E-01  0.117303563588E-01
  0.128817593753E-01  0.141439620362E-01  0.155272444298E-01  0.170427742289E-01  0.187026716733E-01
  0.205200771677E-01  0.225092211525E-01  0.246854957819E-01  0.270655277991E-01  0.296672518275E-01
  0.325099830940E-01  0.356144883681E-01  0.390030536234E-01  0.426995466201E-01  0.467294722391E-01
  0.511200179953E-01  0.559000866906E-01  0.611003126472E-01  0.667530573878E-01  0.728923799869E-01
  0.795539766313E-01  0.867750831747E-01  0.945943336865E-01  0.103051567169E+00  0.112187573789E+00
  0.122043771137E+00  0.132661800284E+00  0.144083030714E+00  0.156347962706E+00  0.169495515507E+00
  0.183562189664E+00  0.198581092463E+00  0.214580816551E+00  0.231584163733E+00  0.249606708860E+00
  0.268655202838E+00  0.288725819354E+00  0.309802257268E+00  0.331853719966E+00  0.354832804623E+00
  0.378673348594E+00  0.403288297097E+00  0.428567676252E+00  0.454376778068E+00  0.480554689067E+00
  0.506913320984E+00  0.533237129433E+00  0.559283732762E+00  0.584785666038E+00  0.609453520920E+00
  0.632980726487E+00  0.655050213322E+00  0.675343166435E+00  0.693550003670E+00  0.709383606218E+00
  0.722594667063E+00  0.732988802513E+00  0.740444784187E+00  0.744932890184E+00  0.746531947746E+00
  0.745443158329E+00  0.741998287019E+00  0.736659307999E+00  0.730006197292E+00  0.722709352728E+00
  0.715483229963E+00  0.709018373473E+00  0.703890276074E+00  0.700446346174E+00  0.698804032642E+00
  0.699102984415E+00  0.701507838908E+00  0.000000000000E+00  0.000000000000E+00  0.000000000000E+00
  0.000000000000E+00  0.000000000000E+00  0.000000000000E+00  0.000000000000E+00  0.000000000000E+00
  0.000000000000E+00  0.000000000000E+00  0.000000000000E+00  0.000000000000E+00  0.000000000000E+00
  0.000000000000E+00  0.000000000000E+00  0.000000000000E+00  0.000000000000E+00  0.000000000000E+00
  0.000000000000E+00  0.000000000000E+00  0.000000000000E+00  0.000000000000E+00  0.000000000000E+00
  0.000000000000E+00  0.000000000000E+00  0.000000000000E+00  0.000000000000E+00  0.000000000000E+00
  0.000000000000E+00  0.000000000000E+00
 ae wavefunction
  0.162901079391E-09  0.178374827837E-09  0.195161099268E-09  0.213384025443E-09  0.233178524107E-09
  0.254691324238E-09  0.278082081261E-09  0.303524594735E-09  0.331208134867E-09  0.361338890302E-09
  0.394141547249E-09  0.429861014840E-09  0.468764307552E-09  0.511142603061E-09  0.557313488024E-09
  0.607623415014E-09  0.662450386047E-09  0.722206885812E-09  0.787343089856E-09  0.858350371272E-09
  0.935765137461E-09  0.102017302476E-08  0.111221348794E-08  0.121258482190E-08  0.132204965542E-08
  0.144144096263E-08  0.157166864338E-08  0.171372672464E-08  0.186870124340E-08  0.203777887729E-08
  0.222225639302E-08  0.242355099288E-08  0.264321164409E-08  0.288293148741E-08  0.314456142702E-08
  0.343012501721E-08  0.374183477006E-08  0.408211002183E-08  0.445359650854E-08  0.485918781612E-08
  0.530204888677E-08  0.578564178054E-08  0.631375391115E-08  0.689052899584E-08  0.752050098300E-08
  0.820863124697E-08  0.896034936753E-08  0.978159784317E-08  0.106788811212E-07  0.116593193643E-07
  0.127307074172E-07  0.139015794774E-07  0.151812800328E-07  0.165800416668E-07  0.181090704165E-07
  0.197806394087E-07  0.216081915911E-07  0.236064524435E-07  0.257915536503E-07  0.281811688021E-07
  0.307946623068E-07  0.336532528018E-07  0.367801924903E-07  0.402009639623E-07  0.439434962090E-07
  0.480384017145E-07  0.525192366948E-07  0.574227867536E-07  0.627893804323E-07  0.686632334161E-07
  0.750928263805E-07  0.821313197887E-07  0.898370092644E-07  0.982738255098E-07  0.107511883161E-06
  0.117628083345E-06  0.128706775257E-06  0.140840482468E-06  0.154130700405E-06  0.168688771927E-06
  0.184636848618E-06  0.202108946269E-06  0.221252103787E-06  0.242227655540E-06  0.265212628386E-06
  0.290401275546E-06  0.318006760674E-06  0.348263006875E-06  0.381426726743E-06  0.417779651237E-06
  0.457630976631E-06  0.501320051013E-06  0.549219323646E-06  0.601737582820E-06  0.659323510388E-06
  0.722469583737E-06  0.791716359196E-06  0.867657173863E-06  0.950943306602E-06  0.104228964282E-05
  0.114248089202E-05  0.125237841164E-05  0.137292769605E-05  0.150516659516E-05  0.165023433314E-05
  0.180938140473E-05  0.198398043380E-05  0.217553808710E-05  0.238570814478E-05  0.261630583921E-05
  0.286932358376E-05  0.314694822543E-05  0.345157996700E-05  0.378585311903E-05  0.415265885642E-05
  0.455517017118E-05  0.499686923052E-05  0.548157736966E-05  0.601348796968E-05  0.659720249346E-05
  0.723776998034E-05  0.794073032466E-05  0.871216169674E-05  0.955873249533E-05  0.104877582582E-04
  0.115072639950E-04  0.126260524503E-04  0.138537788501E-04  0.152010327352E-04  0.166794275406E-04
  0.183016986372E-04  0.200818106185E-04  0.220350746840E-04  0.241782770459E-04  0.265298193698E-04
  0.291098723461E-04  0.319405435889E-04  0.350460611592E-04  0.384529741264E-04  0.421903716989E-04
  0.462901225909E-04  0.507871364321E-04  0.557196491792E-04  0.611295346556E-04  0.670626445219E-04
  0.735691791702E-04  0.807040922426E-04  0.885275316924E-04  0.971053205460E-04  0.106509480772E-03
  0.116818803943E-03  0.128119472656E-03  0.140505736994E-03  0.154080650638E-03  0.168956871595E-03
  0.185257532867E-03  0.203117188803E-03  0.222682843279E-03  0.244115066297E-03  0.267589206078E-03
  0.293296704192E-03  0.321446521811E-03  0.352266685696E-03  0.386005963108E-03  0.422935675419E-03
  0.463351660813E-03  0.507576397116E-03  0.555961296423E-03  0.608889183888E-03  0.666776973720E-03
  0.730078556124E-03  0.799287909621E-03  0.874942453913E-03  0.957626659113E-03  0.104797592788E-02
  0.114668076764E-02  0.125449127075E-02  0.137222192090E-02  0.150075674485E-02  0.164105482876E-02
  0.179415621891E-02  0.196118822694E-02  0.214337215957E-02  0.234203049322E-02  0.255859451327E-02
  0.279461243769E-02  0.305175804397E-02  0.333183981744E-02  0.363681063781E-02  0.396877801949E-02
  0.433001491893E-02  0.472297112037E-02  0.515028520822E-02  0.561479713112E-02  0.611956135908E-02
  0.666786063009E-02  0.726322027799E-02  0.790942312710E-02  0.861052493274E-02  0.937087033885E-02
  0.101951093161E-01  0.110882140339E-01  0.120554961103E-01  0.131026241714E-01  0.142356416404E-01
  0.154609846640E-01  0.167855000674E-01  0.182164632180E-01  0.197615956590E-01  0.214290823613E-01
  0.232275884259E-01  0.251662750520E-01  0.272548145717E-01  0.295034043341E-01  0.319227792026E-01
  0.345242224007E-01  0.373195744049E-01  0.403212395255E-01  0.435421897360E-01  0.469959652015E-01
  0.506966708275E-01  0.546589680200E-01  0.588980607490E-01  0.634296749903E-01  0.682700307198E-01
  0.734358058554E-01  0.789440918702E-01  0.848123411611E-01  0.910583065749E-01  0.976999736638E-01
  0.104755486180E+00  0.112243064970E+00  0.120180919882E+00  0.128587153789E+00  0.137479657552E+00
  0.146875994890E+00  0.156793276481E+00  0.167248023054E+00  0.178256017516E+00  0.189832146294E+00
  0.201990230107E+00  0.214742844358E+00  0.228101129478E+00  0.242074591633E+00  0.256670894523E+00
  0.271895643269E+00  0.287752161810E+00  0.304241265595E+00  0.321361031879E+00  0.339106570355E+00
  0.357469797367E+00  0.376439217460E+00  0.395999716348E+00  0.416132369772E+00  0.436814272760E+00
  0.458018393726E+00  0.479713457413E+00  0.501863860029E+00  0.524429619172E+00  0.547366360694E+00
  0.570625345178E+00  0.594153539180E+00  0.617893742207E+00  0.641784790270E+00  0.665761870416E+00
  0.689756993159E+00  0.713699668450E+00  0.737517789542E+00  0.761138612015E+00  0.784489504544E+00
  0.807497915065E+00  0.830089972882E+00  0.852187638296E+00  0.873705388148E+00  0.894548497539E+00
  0.914614776359E+00  0.933799437021E+00  0.952000443706E+00  0.969121942028E+00  0.985075517809E+00
  0.999780371707E+00  0.101316338000E+01  0.102515944299E+01  0.103571213747E+01  0.104477453169E+01
  0.105230998998E+01  0.105829282560E+01  0.106270872193E+01  0.106555489067E+01  0.106683998501E+01
  0.106658379881E+01  0.106481679463E+01  0.106157950154E+01  0.105692182135E+01  0.105090227435E+01
  0.104358721330E+01  0.103505002992E+01  0.102537036985E+01  0.101463337386E+01  0.100292895198E+01
  0.990351098508E+00  0.976997248799E+00  0.962967679209E+00  0.948364947887E+00  0.933293376398E+00
  0.917858573106E+00  0.902167003865E+00  0.886325618986E+00  0.870441546638E+00  0.854621871944E+00
  0.838973512263E+00  0.823603200573E+00  0.808617577780E+00  0.794123386212E+00  0.780227744108E+00
  0.767038475308E+00  0.754664468030E+00  0.743216048679E+00  0.732805380878E+00  0.723546932801E+00
  0.715558083028E+00  0.708959955874E+00  0.703878568586E+00  0.700446346174E+00  0.698804032642E+00
  0.699102984415E+00  0.701507838908E+00  0.000000000000E+00  0.000000000000E+00  0.000000000000E+00
  0.000000000000E+00  0.000000000000E+00  0.000000000000E+00  0.000000000000E+00  0.000000000000E+00
  0.000000000000E+00  0.000000000000E+00  0.000000000000E+00  0.000000000000E+00  0.000000000000E+00
  0.000000000000E+00  0.000000000000E+00  0.000000000000E+00  0.000000000000E+00  0.000000000000E+00
  0.000000000000E+00  0.000000000000E+00  0.000000000000E+00  0.000000000000E+00  0.000000000000E+00
  0.000000000000E+00  0.000000000000E+00  0.000000000000E+00  0.000000000000E+00  0.000000000000E+00
  0.000000000000E+00  0.000000000000E+00
 pseudo wavefunction
  0.220522316608E-04  0.227693152229E-04  0.235097165537E-04  0.242741938890E-04  0.250635301202E-04
  0.258785335969E-04  0.267200389537E-04  0.275889079658E-04  0.284860304309E-04  0.294123250810E-04
  0.303687405227E-04  0.313562562091E-04  0.323758834426E-04  0.334286664107E-04  0.345156832552E-04
  0.356380471764E-04  0.367969075731E-04  0.379934512198E-04  0.392289034819E-04  0.405045295705E-04
  0.418216358384E-04  0.431815711176E-04  0.445857281008E-04  0.460355447678E-04  0.475325058576E-04
  0.490781443894E-04  0.506740432325E-04  0.523218367270E-04  0.540232123576E-04  0.557799124821E-04
  0.575937361153E-04  0.594665407714E-04  0.614002443665E-04  0.633968271826E-04  0.654583338954E-04
  0.675868756686E-04  0.697846323156E-04  0.720538545319E-04  0.743968662002E-04  0.768160667701E-04
  0.793139337152E-04  0.818930250707E-04  0.845559820526E-04  0.873055317629E-04  0.901444899821E-04
  0.930757640530E-04  0.961023558581E-04  0.992273648938E-04  0.102453991444E-03  0.105785539860E-03
  0.109225421939E-03  0.112777160425E-03  0.116444392611E-03  0.120230874066E-03  0.124140482483E-03
  0.128177221646E-03  0.132345225532E-03  0.136648762547E-03  0.141092239895E-03  0.145680208090E-03
  0.150417365619E-03  0.155308563752E-03  0.160358811512E-03  0.165573280803E-03  0.170957311705E-03
  0.176516417948E-03  0.182256292554E-03  0.188182813669E-03  0.194302050581E-03  0.200620269940E-03
  0.207143942172E-03  0.213879748106E-03  0.220834585815E-03  0.228015577684E-03  0.235430077702E-03
  0.243085678991E-03  0.250990221586E-03  0.259151800463E-03  0.267578773828E-03  0.276279771679E-03
  0.285263704641E-03  0.294539773097E-03  0.304117476603E-03  0.314006623626E-03  0.324217341579E-03
  0.334760087202E-03  0.345645657267E-03  0.356885199635E-03  0.368490224675E-03  0.380472617052E-03
  0.392844647898E-03  0.405618987380E-03  0.418808717680E-03  0.432427346386E-03  0.446488820335E-03
  0.461007539892E-03  0.475998373698E-03  0.491476673905E-03  0.507458291894E-03  0.523959594510E-03
  0.540997480833E-03  0.558589399479E-03  0.576753366474E-03  0.595507983712E-03  0.614872458000E-03
  0.634866620742E-03  0.655510948244E-03  0.676826582690E-03  0.698835353805E-03  0.721559801208E-03
  0.745023197507E-03  0.769249572137E-03  0.794263735979E-03  0.820091306771E-03  0.846758735361E-03
  0.874293332798E-03  0.902723298319E-03  0.932077748233E-03  0.962386745762E-03  0.993681331837E-03
  0.102599355691E-02  0.105935651378E-02  0.109380437152E-02  0.112937241051E-02  0.116609705853E-02
  0.120401592817E-02  0.124316785532E-02  0.128359293899E-02  0.132533258246E-02  0.136842953563E-02
  0.141292793893E-02  0.145887336853E-02  0.150631288308E-02  0.155529507194E-02  0.160587010505E-02
  0.165808978435E-02  0.171200759691E-02  0.176767876981E-02  0.182516032677E-02  0.188451114667E-02
  0.194579202399E-02  0.200906573114E-02  0.207439708293E-02  0.214185300309E-02  0.221150259298E-02
  0.228341720254E-02  0.235767050360E-02  0.243433856548E-02  0.251349993324E-02  0.259523570834E-02
  0.267962963199E-02  0.276676817129E-02  0.285674060814E-02  0.294963913104E-02  0.304555893001E-02
  0.314459829454E-02  0.324685871478E-02  0.335244498610E-02  0.346146531706E-02  0.357403144096E-02
  0.369025873106E-02  0.381026631961E-02  0.393417722084E-02  0.406211845799E-02  0.419422119457E-02
  0.433062087000E-02  0.447145733970E-02  0.461687501993E-02  0.476702303736E-02  0.492205538375E-02
  0.508213107569E-02  0.524741431977E-02  0.541807468329E-02  0.559428727069E-02  0.577623290594E-02
  0.596409832111E-02  0.615807635131E-02  0.635836613630E-02  0.656517332887E-02  0.677871031047E-02
  0.699919641415E-02  0.722685815516E-02  0.746192946957E-02  0.770465196111E-02  0.795527515660E-02
  0.821405677033E-02  0.848126297766E-02  0.875716869831E-02  0.904205788962E-02  0.933622385037E-02
  0.963996953527E-02  0.995360788099E-02  0.102774621438E-01  0.106118662497E-01  0.109571651570E-01
  0.113137152330E-01  0.116818846438E-01  0.120620537595E-01  0.124546155742E-01  0.128599761422E-01
  0.132785550305E-01  0.137107857903E-01  0.141571164446E-01  0.146180099973E-01  0.150939449614E-01
  0.155854159087E-01  0.160929340422E-01  0.166170277917E-01  0.171582434349E-01  0.177171457439E-01
  0.182943186603E-01  0.188903659985E-01  0.195059121811E-01  0.201416030059E-01  0.207981064483E-01
  0.214761135003E-01  0.221763390479E-01  0.228995227908E-01  0.236464302053E-01  0.244178535548E-01
  0.252146129492E-01  0.260375574581E-01  0.268875662807E-01  0.277655499756E-01  0.286724517563E-01
  0.296092488542E-01  0.305769539576E-01  0.315766167282E-01  0.326093254033E-01  0.336762084892E-01
  0.347784365519E-01  0.359172241131E-01  0.370938316584E-01  0.383095677676E-01  0.395657913742E-01
  0.408639141663E-01  0.422054031373E-01  0.435917833002E-01  0.450246405758E-01  0.465056248700E-01
  0.480364533542E-01  0.496189139639E-01  0.512548691330E-01  0.529462597824E-01  0.546951095807E-01
  0.565035295003E-01  0.583737226890E-01  0.603079896828E-01  0.623087339842E-01  0.643784680340E-01
  0.665198196050E-01  0.687355386481E-01  0.710285046231E-01  0.734017343472E-01  0.758583903979E-01
  0.784017901050E-01  0.810354151710E-01  0.837629219564E-01  0.865881524717E-01  0.895151461127E-01
  0.925481521783E-01  0.956916432083E-01  0.989503291761E-01  0.102329172566E+00  0.105833404364E+00
  0.109468540978E+00  0.113240402108E+00  0.117155129546E+00  0.121219206923E+00  0.125439480332E+00
  0.129823179816E+00  0.134377941599E+00  0.139111830981E+00  0.144033365727E+00  0.149151539748E+00
  0.154475846842E+00  0.160016304141E+00  0.165783474896E+00  0.171788490088E+00  0.178043068276E+00
  0.184559532957E+00  0.191350826574E+00  0.198430520131E+00  0.205812817199E+00  0.213512550872E+00
  0.221545171975E+00  0.229926726579E+00  0.238673820530E+00  0.247803568381E+00  0.257333523729E+00
  0.267281587539E+00  0.277665890599E+00  0.288504645763E+00  0.299815965148E+00  0.311617636944E+00
  0.323926855974E+00  0.336759901656E+00  0.350131756588E+00  0.364055658587E+00  0.378542578797E+00
  0.393600618401E+00  0.409234316641E+00  0.425443863379E+00  0.442224210301E+00  0.459564076380E+00
  0.477444845291E+00  0.495839355439E+00  0.514710587190E+00  0.534010256979E+00  0.553677334464E+00
  0.573636506854E+00  0.593796624292E+00  0.614049171696E+00  0.634266825926E+00  0.654302172466E+00
  0.673986672740E+00  0.693129991436E+00  0.711519811935E+00  0.728922286207E+00  0.745083281718E+00
  0.759730599939E+00  0.772577346269E+00  0.783326626001E+00  0.791674722083E+00  0.797422468050E+00
  0.800544188334E+00  0.801051160287E+00  0.798968749230E+00  0.794337139445E+00  0.787211969364E+00
  0.777664820043E+00  0.765783515776E+00  0.751672210316E+00  0.735451224435E+00  0.717256593203E+00
  0.697239272815E+00  0.675563955065E+00  0.652407447939E+00  0.627956602492E+00  0.602405812093E+00
  0.575954157687E+00  0.548802324208E+00  0.521149449894E+00  0.493190091583E+00  0.465111474796E+00
  0.437091169647E+00  0.409295285702E+00  0.381877223533E+00  0.354976968380E+00  0.328720862623E+00
  0.303221758042E+00  0.278579424759E+00  0.254881085063E+00  0.232201947811E+00  0.210605642982E+00
  0.190144494001E+00  0.170859612257E+00
 ae wavefunction
 -0.777572205550E-03 -0.802406761018E-03 -0.828032700462E-03 -0.854475125745E-03 -0.881759927550E-03
 -0.909913809673E-03 -0.938964314100E-03 -0.968939846734E-03 -0.999869703927E-03 -0.103178409978E-02
 -0.106471419422E-02 -0.109869212192E-02 -0.113375102201E-02 -0.116992506866E-02 -0.120724950256E-02
 -0.124576066327E-02 -0.128549602247E-02 -0.132649421818E-02 -0.136879508995E-02 -0.141243971499E-02
 -0.145747044531E-02 -0.150393094594E-02 -0.155186623414E-02 -0.160132271970E-02 -0.165234824634E-02
 -0.170499213424E-02 -0.175930522369E-02 -0.181533991991E-02 -0.187315023904E-02 -0.193279185538E-02
 -0.199432214981E-02 -0.205780025949E-02 -0.212328712883E-02 -0.219084556175E-02 -0.226054027522E-02
 -0.233243795419E-02 -0.240660730783E-02 -0.248311912713E-02 -0.256204634390E-02 -0.264346409117E-02
 -0.272744976496E-02 -0.281408308753E-02 -0.290344617200E-02 -0.299562358847E-02 -0.309070243148E-02
 -0.318877238905E-02 -0.328992581308E-02 -0.339425779119E-02 -0.350186622001E-02 -0.361285187997E-02
 -0.372731851138E-02 -0.384537289199E-02 -0.396712491592E-02 -0.409268767393E-02 -0.422217753500E-02
 -0.435571422921E-02 -0.449342093186E-02 -0.463542434875E-02 -0.478185480264E-02 -0.493284632074E-02
 -0.508853672321E-02 -0.524906771260E-02 -0.541458496403E-02 -0.558523821619E-02 -0.576118136288E-02
 -0.594257254507E-02 -0.612957424329E-02 -0.632235337016E-02 -0.652108136311E-02 -0.672593427671E-02
 -0.693709287487E-02 -0.715474272234E-02 -0.737907427542E-02 -0.761028297168E-02 -0.784856931824E-02
 -0.809413897853E-02 -0.834720285693E-02 -0.860797718127E-02 -0.887668358247E-02 -0.915354917116E-02
 -0.943880661077E-02 -0.973269418650E-02 -0.100354558698E-01 -0.103473413777E-01 -0.106686062268E-01
 -0.109995117801E-01 -0.113403252879E-01 -0.116913199201E-01 -0.120527747907E-01 -0.124249749722E-01
 -0.128082115004E-01 -0.132027813675E-01 -0.136089875038E-01 -0.140271387450E-01 -0.144575497859E-01
 -0.149005411183E-01 -0.153564389515E-01 -0.158255751148E-01 -0.163082869403E-01 -0.168049171237E-01
 -0.173158135624E-01 -0.178413291690E-01 -0.183818216574E-01 -0.189376533010E-01 -0.195091906590E-01
 -0.200968042711E-01 -0.207008683154E-01 -0.213217602296E-01 -0.219598602909E-01 -0.226155511532E-01
 -0.232892173383E-01 -0.239812446771E-01 -0.246920196998E-01 -0.254219289689E-01 -0.261713583542E-01
 -0.269406922443E-01 -0.277303126910E-01 -0.285405984832E-01 -0.293719241461E-01 -0.302246588597E-01
 -0.310991652946E-01 -0.319957983578E-01 -0.329149038449E-01 -0.338568169941E-01 -0.348218609343E-01
 -0.358103450247E-01 -0.368225630783E-01 -0.378587914637E-01 -0.389192870799E-01 -0.400042851972E-01
 -0.411139971583E-01 -0.422486079331E-01 -0.434082735203E-01 -0.445931181899E-01 -0.458032315594E-01
 -0.470386654970E-01 -0.482994308456E-01 -0.495854939604E-01 -0.508967730538E-01 -0.522331343418E-01
 -0.535943879840E-01 -0.549802838137E-01 -0.563905068500E-01 -0.578246725884E-01 -0.592823220650E-01
 -0.607629166888E-01 -0.622658328402E-01 -0.637903562326E-01 -0.653356760350E-01 -0.669008787545E-01
 -0.684849418813E-01 -0.700867272951E-01 -0.717049744385E-01 -0.733382932623E-01 -0.749851569485E-01
 -0.766438944217E-01 -0.783126826595E-01 -0.799895388168E-01 -0.816723121801E-01 -0.833586759738E-01
 -0.850461190396E-01 -0.867319374197E-01 -0.884132258714E-01 -0.900868693539E-01 -0.917495345234E-01
 -0.933976612854E-01 -0.950274544550E-01 -0.966348755820E-01 -0.982156350048E-01 -0.997651842049E-01
 -0.101278708537E+00 -0.102751120421E+00 -0.104177053091E+00 -0.105550855001E+00 -0.106866584992E+00
 -0.108118008353E+00 -0.109298593887E+00 -0.110401512138E+00 -0.111419634909E+00 -0.112345536243E+00
 -0.113171495026E+00 -0.113889499395E+00 -0.114491253131E+00 -0.114968184250E+00 -0.115311455976E+00
 -0.115511980329E+00 -0.115560434548E+00 -0.115447280575E+00 -0.115162787836E+00 -0.114697059569E+00
 -0.114040062933E+00 -0.113181663148E+00 -0.112111661914E+00 -0.110819840338E+00 -0.109296006613E+00
 -0.107530048670E+00 -0.105511992004E+00 -0.103232062878E+00 -0.100680757062E+00 -0.978489142507E-01
 -0.947277982672E-01 -0.913091831220E-01 -0.875854449436E-01 -0.835496597544E-01 -0.791957070021E-01
 -0.745183786893E-01 -0.695134938713E-01 -0.641780182086E-01 -0.585101881687E-01 -0.525096393702E-01
 -0.461775384480E-01 -0.395167176995E-01 -0.325318116287E-01 -0.252293943673E-01 -0.176181167938E-01
 -0.970884202124E-02 -0.151477778493E-02  0.694839584904E-02  0.156624050916E-01  0.246062689850E-01
  0.337561954603E-01  0.430854883471E-01  0.525644667126E-01  0.621603979680E-01  0.718374464674E-01
  0.815566398702E-01  0.912758562894E-01  0.100949836056E+00  0.110530222586E+00  0.119965637133E+00
  0.129201791959E+00  0.138181645627E+00  0.146845602872E+00  0.155131760261E+00  0.162976198034E+00
  0.170313318190E+00  0.177076228996E+00  0.183197176118E+00  0.188608020403E+00  0.193240761817E+00
  0.197028108389E+00  0.199904088197E+00  0.201804701773E+00  0.202668611565E+00  0.202437864452E+00
  0.201058642641E+00  0.198482037527E+00  0.194664840340E+00  0.189570342555E+00  0.183169138111E+00
  0.175439918547E+00  0.166370251126E+00  0.155957329000E+00  0.144208681465E+00  0.131142831363E+00
  0.116789885975E+00  0.101192047106E+00  0.844040259655E-01  0.664933486563E-01  0.475405389546E-01
  0.276391662577E-01  0.689574801806E-02 -0.145705030061E-01 -0.366280965626E-01 -0.591338598552E-01
 -0.819337258853E-01 -0.104863735064E+00 -0.127751265366E+00 -0.150416478975E+00 -0.172673907589E+00
 -0.194334000342E+00 -0.215204392172E+00 -0.235090739396E+00 -0.253797300513E+00 -0.271127880125E+00
 -0.286887855231E+00 -0.300887380275E+00 -0.312944994358E+00 -0.322890739125E+00 -0.330568534265E+00
 -0.335838062858E+00 -0.338576450799E+00 -0.338679859695E+00 -0.336064980783E+00 -0.330670357292E+00
 -0.322457451025E+00 -0.311411385084E+00 -0.297541325325E+00 -0.280880489928E+00 -0.261485802249E+00
 -0.239437213517E+00 -0.214836730575E+00 -0.187807186557E+00 -0.158490792998E+00 -0.127047510479E+00
 -0.936532738010E-01 -0.584981052320E-01 -0.217841465698E-01  0.162763609887E-01  0.554631233476E-01
  0.955498415652E-01  0.136306238359E+00  0.177500040503E+00  0.218898894961E+00  0.260272197183E+00
  0.301392811206E+00  0.342038664072E+00  0.381994201105E+00  0.421051693866E+00  0.459012401416E+00
  0.495687589211E+00  0.530899415989E+00  0.564481697244E+00  0.596280549304E+00  0.626154906717E+00
  0.653976894855E+00  0.679632031640E+00  0.703019236141E+00  0.724050642801E+00  0.742651258252E+00
  0.758758538772E+00  0.772322003779E+00  0.783303002828E+00  0.791674722083E+00  0.797422468050E+00
  0.800544188334E+00  0.801051160287E+00  0.798968749230E+00  0.794337139445E+00  0.787211969364E+00
  0.777664820043E+00  0.765783515776E+00  0.751672210316E+00  0.735451224435E+00  0.717256593203E+00
  0.697239272815E+00  0.675563955065E+00  0.652407447939E+00  0.627956602492E+00  0.602405812093E+00
  0.575954157687E+00  0.548802324208E+00  0.521149449894E+00  0.493190091583E+00  0.465111474796E+00
  0.437091169647E+00  0.409295285702E+00  0.381877223533E+00  0.354976968380E+00  0.328720862623E+00
  0.303221758042E+00  0.278579424759E+00  0.254881085063E+00  0.232201947811E+00  0.210605642982E+00
  0.190144494001E+00  0.170859612257E+00
 pseudo wavefunction
  0.545838556159E-04  0.563587864360E-04  0.581914335790E-04  0.600836738358E-04  0.620374450259E-04
  0.640547479818E-04  0.661376485981E-04  0.682882799471E-04  0.705088444634E-04  0.728016161993E-04
  0.751689431534E-04  0.776132496757E-04  0.801370389497E-04  0.827428955564E-04  0.854334881210E-04
  0.882115720454E-04  0.910799923308E-04  0.940416864904E-04  0.970996875581E-04  0.100257127195E-03
  0.103517238894E-03  0.106883361297E-03  0.110358941607E-03  0.113947539122E-03  0.117652828880E-03
  0.121478605423E-03  0.125428786680E-03  0.129507417984E-03  0.133718676209E-03  0.138066874054E-03
  0.142556464453E-03  0.147192045141E-03  0.151978363358E-03  0.156920320715E-03  0.162022978208E-03
  0.167291561406E-03  0.172731465802E-03  0.178348262333E-03  0.184147703093E-03  0.190135727218E-03
  0.196318466971E-03  0.202702254020E-03  0.209293625925E-03  0.216099332829E-03  0.223126344374E-03
  0.230381856840E-03  0.237873300509E-03  0.245608347279E-03  0.253594918520E-03  0.261841193184E-03
  0.270355616185E-03  0.279146907042E-03  0.288224068815E-03  0.297596397318E-03  0.307273490645E-03
  0.317265258996E-03  0.327581934828E-03  0.338234083330E-03  0.349232613249E-03  0.360588788055E-03
  0.372314237482E-03  0.384420969434E-03  0.396921382284E-03  0.409828277571E-03  0.423154873108E-03
  0.436914816523E-03  0.451122199231E-03  0.465791570868E-03  0.480937954191E-03  0.496576860460E-03
  0.512724305330E-03  0.529396825245E-03  0.546611494377E-03  0.564385942114E-03  0.582738371110E-03
  0.601687575932E-03  0.621252962302E-03  0.641454566975E-03  0.662313078259E-03  0.683849857201E-03
  0.706086959465E-03  0.729047157918E-03  0.752753965956E-03  0.777231661581E-03  0.802505312269E-03
  0.828600800641E-03  0.855544850969E-03  0.883365056552E-03  0.912089907968E-03  0.941748822262E-03
  0.972372173065E-03  0.100399132171E-02  0.103663864935E-02  0.107034759011E-02  0.110515266536E-02
  0.114108951904E-02  0.117819495419E-02  0.121650697063E-02  0.125606480389E-02  0.129690896538E-02
  0.133908128392E-02  0.138262494855E-02  0.142758455277E-02  0.147400614024E-02  0.152193725192E-02
  0.157142697479E-02  0.162252599209E-02  0.167528663529E-02  0.172976293766E-02  0.178601068963E-02
  0.184408749596E-02  0.190405283472E-02  0.196596811824E-02  0.202989675604E-02  0.209590421976E-02
  0.216405811028E-02  0.223442822691E-02  0.230708663901E-02  0.238210775973E-02  0.245956842234E-02
  0.253954795888E-02  0.262212828155E-02  0.270739396657E-02  0.279543234089E-02  0.288633357169E-02
  0.298019075879E-02  0.307710003009E-02  0.317716064005E-02  0.328047507153E-02  0.338714914076E-02
  0.349729210588E-02  0.361101677896E-02  0.372843964164E-02  0.384968096465E-02  0.397486493107E-02
  0.410411976379E-02  0.423757785695E-02  0.437537591185E-02  0.451765507714E-02  0.466456109369E-02
  0.481624444415E-02  0.497286050741E-02  0.513456971812E-02  0.530153773140E-02  0.547393559294E-02
  0.565193991471E-02  0.583573305640E-02  0.602550331275E-02  0.622144510709E-02  0.642375919124E-02
  0.663265285187E-02  0.684834012374E-02  0.707104200985E-02  0.730098670896E-02  0.753840985040E-02
  0.778355473683E-02  0.803667259478E-02  0.829802283364E-02  0.856787331307E-02  0.884650061928E-02
  0.913419035050E-02  0.943123741178E-02  0.973794631969E-02  0.100546315170E-01  0.103816176981E-01
  0.107192401445E-01  0.110678450729E-01  0.114277899930E-01  0.117994440792E-01  0.121831885534E-01
  0.125794170808E-01  0.129885361798E-01  0.134109656451E-01  0.138471389849E-01  0.142975038733E-01
  0.147625226179E-01  0.152426726435E-01  0.157384469919E-01  0.162503548390E-01  0.167789220299E-01
  0.173246916321E-01  0.178882245078E-01  0.184700999064E-01  0.190709160771E-01  0.196912909037E-01
  0.203318625608E-01  0.209932901938E-01  0.216762546229E-01  0.223814590721E-01  0.231096299241E-01
  0.238615175031E-01  0.246378968853E-01  0.254395687392E-01  0.262673601973E-01  0.271221257589E-01
  0.280047482280E-01  0.289161396850E-01  0.298572424966E-01  0.308290303627E-01  0.318325094054E-01
  0.328687192986E-01  0.339387344431E-01  0.350436651880E-01  0.361846591005E-01  0.373629022876E-01
  0.385796207721E-01  0.398360819245E-01  0.411335959556E-01  0.424735174725E-01  0.438572471009E-01
  0.452862331775E-01  0.467619735178E-01  0.482860172622E-01  0.498599668052E-01  0.514854798140E-01
  0.531642713397E-01  0.548981160291E-01  0.566888504415E-01  0.585383754786E-01  0.604486589335E-01
  0.624217381678E-01  0.644597229239E-01  0.665647982823E-01  0.687392277740E-01  0.709853566572E-01
  0.733056153708E-01  0.757025231769E-01  0.781786920038E-01  0.807368305065E-01  0.833797483573E-01
  0.861103607841E-01  0.889316933742E-01  0.918468871626E-01  0.948592040244E-01  0.979720323939E-01
  0.101188893335E+00  0.104513446983E+00  0.107949499394E+00  0.111501009821E+00  0.115172098452E+00
  0.118967054641E+00  0.122890345669E+00  0.126946626065E+00  0.131140747534E+00  0.135477769526E+00
  0.139962970480E+00  0.144601859811E+00  0.149400190650E+00  0.154363973416E+00  0.159499490236E+00
  0.164813310283E+00  0.170312306061E+00  0.176003670687E+00  0.181894936202E+00  0.187993992960E+00
  0.194309110113E+00  0.200848957210E+00  0.207622626934E+00  0.214639658958E+00  0.221910064906E+00
  0.229444354369E+00  0.237253561912E+00  0.245349274953E+00  0.253743662378E+00  0.262449503688E+00
  0.271480218422E+00  0.280849895522E+00  0.290573322224E+00  0.300666011963E+00  0.311144230638E+00
  0.322025020463E+00  0.333326220443E+00  0.345066482346E+00  0.357265280766E+00  0.369942915663E+00
  0.383120505412E+00  0.396819968068E+00  0.411063988139E+00  0.425875965683E+00  0.441279944056E+00
  0.457300511981E+00  0.473962675002E+00  0.491291690586E+00  0.509312860330E+00  0.528051271792E+00
  0.547531481469E+00  0.567777129357E+00  0.588810474353E+00  0.610651838541E+00  0.633318947149E+00
  0.656826149654E+00  0.681183506324E+00  0.706395723272E+00  0.732460918160E+00  0.759369197959E+00
  0.787101029836E+00  0.815625386486E+00  0.844897648193E+00  0.874857245880E+00  0.905425032635E+00
  0.936500376092E+00  0.967957970888E+00  0.999644379799E+00  0.103137432449E+01  0.106292676265E+01
  0.109404080848E+01  0.112441157793E+01  0.115368607068E+01  0.118145923624E+01  0.120727041408E+01
  0.123060038575E+01  0.125086933120E+01  0.126743604091E+01  0.127959879797E+01  0.128659840772E+01
  0.128762391263E+01  0.128182158156E+01  0.126830779750E+01  0.124618647712E+01  0.121457162617E+01
  0.117261555360E+01  0.111954311564E+01  0.105469212254E+01  0.977560604150E+00  0.887959254119E+00
  0.786103213834E+00  0.672409479820E+00  0.000000000000E+00  0.000000000000E+00  0.000000000000E+00
  0.000000000000E+00  0.000000000000E+00  0.000000000000E+00  0.000000000000E+00  0.000000000000E+00
  0.000000000000E+00  0.000000000000E+00  0.000000000000E+00  0.000000000000E+00  0.000000000000E+00
  0.000000000000E+00  0.000000000000E+00  0.000000000000E+00  0.000000000000E+00  0.000000000000E+00
  0.000000000000E+00  0.000000000000E+00  0.000000000000E+00  0.000000000000E+00  0.000000000000E+00
  0.000000000000E+00  0.000000000000E+00  0.000000000000E+00  0.000000000000E+00  0.000000000000E+00
  0.000000000000E+00  0.000000000000E+00
 ae wavefunction
 -0.164328978117E-02 -0.169577412895E-02 -0.174993095550E-02 -0.180581331007E-02 -0.186347590897E-02
 -0.192297518691E-02 -0.198436934997E-02 -0.204771843004E-02 -0.211308434081E-02 -0.218053093551E-02
 -0.225012406627E-02 -0.232193164516E-02 -0.239602370704E-02 -0.247247247419E-02 -0.255135242284E-02
 -0.263274035149E-02 -0.271671545123E-02 -0.280335937807E-02 -0.289275632723E-02 -0.298499310958E-02
 -0.308015923009E-02 -0.317834696861E-02 -0.327965146272E-02 -0.338417079292E-02 -0.349200607014E-02
 -0.360326152557E-02 -0.371804460291E-02 -0.383646605315E-02 -0.395864003171E-02 -0.408468419830E-02
 -0.421471981922E-02 -0.434887187244E-02 -0.448726915527E-02 -0.463004439481E-02 -0.477733436115E-02
 -0.492927998338E-02 -0.508602646849E-02 -0.524772342310E-02 -0.541452497813E-02 -0.558658991646E-02
 -0.576408180346E-02 -0.594716912067E-02 -0.613602540233E-02 -0.633082937515E-02 -0.653176510089E-02
 -0.673902212224E-02 -0.695279561153E-02 -0.717328652269E-02 -0.740070174608E-02 -0.763525426646E-02
 -0.787716332389E-02 -0.812665457758E-02 -0.838396027273E-02 -0.864931941010E-02 -0.892297791848E-02
 -0.920518882982E-02 -0.949621245698E-02 -0.979631657400E-02 -0.101057765988E-01 -0.104248757779E-01
 -0.107539053740E-01 -0.110931648541E-01 -0.114429620808E-01 -0.118036135046E-01 -0.121754443567E-01
 -0.125587888444E-01 -0.129539903455E-01 -0.133614016047E-01 -0.137813849288E-01 -0.142143123821E-01
 -0.146605659814E-01 -0.151205378891E-01 -0.155946306051E-01 -0.160832571563E-01 -0.165868412829E-01
 -0.171058176222E-01 -0.176406318872E-01 -0.181917410409E-01 -0.187596134646E-01 -0.193447291199E-01
 -0.199475797029E-01 -0.205686687905E-01 -0.212085119756E-01 -0.218676369938E-01 -0.225465838358E-01
 -0.232459048482E-01 -0.239661648184E-01 -0.247079410434E-01 -0.254718233815E-01 -0.262584142824E-01
 -0.270683287978E-01 -0.279021945665E-01 -0.287606517750E-01 -0.296443530895E-01 -0.305539635570E-01
 -0.314901604742E-01 -0.324536332195E-01 -0.334450830470E-01 -0.344652228379E-01 -0.355147768070E-01
 -0.365944801603E-01 -0.377050786999E-01 -0.388473283728E-01 -0.400219947585E-01 -0.412298524918E-01
 -0.424716846157E-01 -0.437482818597E-01 -0.450604418374E-01 -0.464089681600E-01 -0.477946694565E-01
 -0.492183582984E-01 -0.506808500192E-01 -0.521829614235E-01 -0.537255093786E-01 -0.553093092808E-01
 -0.569351733882E-01 -0.586039090126E-01 -0.603163165616E-01 -0.620731874215E-01 -0.638753016730E-01
 -0.657234256274E-01 -0.676183091769E-01 -0.695606829450E-01 -0.715512552278E-01 -0.735907087151E-01
 -0.756796969787E-01 -0.778188407162E-01 -0.800087237390E-01 -0.822498886899E-01 -0.845428324778E-01
 -0.868880014179E-01 -0.892857860614E-01 -0.917365157017E-01 -0.942404525446E-01 -0.967977855256E-01
 -0.994086237628E-01 -0.102072989630E+00 -0.104790811435E+00 -0.107561915692E+00 -0.110386018975E+00
 -0.113262719327E+00 -0.116191487240E+00 -0.119171656155E+00 -0.122202412515E+00 -0.125282785316E+00
 -0.128411635189E+00 -0.131587642970E+00 -0.134809297784E+00 -0.138074884607E+00 -0.141382471337E+00
 -0.144729895349E+00 -0.148114749550E+00 -0.151534367947E+00 -0.154985810720E+00 -0.158465848834E+00
 -0.161970948202E+00 -0.165497253415E+00 -0.169040571089E+00 -0.172596352844E+00 -0.176159677972E+00
 -0.179725235834E+00 -0.183287308058E+00 -0.186839750587E+00 -0.190375975668E+00 -0.193888933855E+00
 -0.197371096143E+00 -0.200814436315E+00 -0.204210413648E+00 -0.207549956096E+00 -0.210823444112E+00
 -0.214020695259E+00 -0.217130949805E+00 -0.220142857488E+00 -0.223044465668E+00 -0.225823209104E+00
 -0.228465901602E+00 -0.230958729804E+00 -0.233287249423E+00 -0.235436384216E+00 -0.237390428053E+00
 -0.239133050413E+00 -0.240647305703E+00 -0.241915646787E+00 -0.242919943147E+00 -0.243641504110E+00
 -0.244061107605E+00 -0.244159034917E+00 -0.243915111925E+00 -0.243308757336E+00 -0.242319038420E+00
 -0.240924734763E+00 -0.239104410563E+00 -0.236836495987E+00 -0.234099378099E+00 -0.230871501849E+00
 -0.227131481615E+00 -0.222858223725E+00 -0.218031060375E+00 -0.212629895303E+00 -0.206635361515E+00
 -0.200028991300E+00 -0.192793398670E+00 -0.184912474290E+00 -0.176371592823E+00 -0.167157832524E+00
 -0.157260206737E+00 -0.146669906829E+00 -0.135380555901E+00 -0.123388472406E+00 -0.110692942629E+00
 -0.972965007058E-01 -0.832052146116E-01 -0.684289762700E-01 -0.529817936061E-01 -0.368820820580E-01
 -0.201529527282E-01 -0.282249406230E-02  0.150759562910E-01  0.335035529157E-01  0.524157008192E-01
  0.717618336920E-01  0.914852153229E-01  0.111522767114E+00  0.131804924774E+00  0.152255527885E+00
  0.172791747204E+00  0.193324056154E+00  0.213756254683E+00  0.233985555062E+00  0.253902739823E+00
  0.273392401531E+00  0.292333272313E+00  0.310598648458E+00  0.328056912781E+00  0.344572155697E+00
  0.360004895295E+00  0.374212896968E+00  0.387052093159E+00  0.398377603472E+00  0.408044854294E+00
  0.415910795661E+00  0.421835211399E+00  0.425682117190E+00  0.427321239598E+00  0.426629567773E+00
  0.423492968057E+00  0.417807850198E+00  0.409482872122E+00  0.398440668507E+00  0.384619586266E+00
  0.367975408070E+00  0.348483042769E+00  0.326138159288E+00  0.300958738391E+00  0.272986514536E+00
  0.242288278323E+00  0.208957008689E+00  0.173112803570E+00  0.134903578141E+00  0.945055013882E-01
  0.521231441862E-01  0.798931490567E-02 -0.376354395123E-01 -0.844636897544E-01 -0.132182365270E+00
 -0.180454417023E+00 -0.228920946147E+00 -0.277203832440E+00 -0.324908837548E+00 -0.371629016820E+00
 -0.416948065455E+00 -0.460443087894E+00 -0.501686475679E+00 -0.540247289105E+00 -0.575693468792E+00
 -0.607596401279E+00 -0.635538021880E+00 -0.659118787542E+00 -0.677964630062E+00 -0.691732368049E+00
 -0.700114123519E+00 -0.702841347220E+00 -0.699688702046E+00 -0.690477773448E+00 -0.675080449542E+00
 -0.653421790821E+00 -0.625482245222E+00 -0.591299129966E+00 -0.550967358533E+00 -0.504639444702E+00
 -0.452524839017E+00 -0.394888669942E+00 -0.332049966532E+00 -0.264379439326E+00 -0.192296891902E+00
 -0.116268331568E+00 -0.368028406848E-01  0.455507372647E-01  0.130207248893E+00  0.216548779634E+00
  0.303928264996E+00  0.391673135094E+00  0.479088967575E+00  0.565463127999E+00  0.650068382459E+00
  0.732166474728E+00  0.811011672515E+00  0.885854302776E+00  0.955944314040E+00  0.102053493064E+01
  0.107888647675E+01  0.113027046767E+01  0.117397406629E+01  0.120930499868E+01  0.123559700540E+01
  0.125221589320E+01  0.125856624865E+01  0.125409889848E+01  0.123831925500E+01  0.121079675831E+01
  0.117117568125E+01  0.111918757900E+01  0.105466558541E+01  0.977560604150E+00  0.887959254119E+00
  0.786103213834E+00  0.672409479820E+00  0.000000000000E+00  0.000000000000E+00  0.000000000000E+00
  0.000000000000E+00  0.000000000000E+00  0.000000000000E+00  0.000000000000E+00  0.000000000000E+00
  0.000000000000E+00  0.000000000000E+00  0.000000000000E+00  0.000000000000E+00  0.000000000000E+00
  0.000000000000E+00  0.000000000000E+00  0.000000000000E+00  0.000000000000E+00  0.000000000000E+00
  0.000000000000E+00  0.000000000000E+00  0.000000000000E+00  0.000000000000E+00  0.000000000000E+00
  0.000000000000E+00  0.000000000000E+00  0.000000000000E+00  0.000000000000E+00  0.000000000000E+00
  0.000000000000E+00  0.000000000000E+00
 pseudo wavefunction
  0.112902424827E-08  0.120364416922E-08  0.128319589976E-08  0.136800539502E-08  0.145842015328E-08
  0.155481063983E-08  0.165757180487E-08  0.176712470185E-08  0.188391821261E-08  0.200843088671E-08
  0.214117290216E-08  0.228268815588E-08  0.243355649224E-08  0.259439607892E-08  0.276586593978E-08
  0.294866865515E-08  0.314355324058E-08  0.335131821587E-08  0.357281487688E-08  0.380895078369E-08
  0.406069347918E-08  0.432907445349E-08  0.461519337039E-08  0.492022257310E-08  0.524541188780E-08
  0.559209374468E-08  0.596168863746E-08  0.635571094370E-08  0.677577512980E-08  0.722360236615E-08
  0.770102757939E-08  0.821000697092E-08  0.875262603215E-08  0.933110808967E-08  0.994782341504E-08
  0.106052989368E-07  0.113062285943E-07  0.120534843757E-07  0.128501280859E-07  0.136994238918E-07
  0.146048516971E-07  0.155701214004E-07  0.165991880968E-07  0.176962682829E-07  0.188658571338E-07
  0.201127469218E-07  0.214420466516E-07  0.228592029947E-07  0.243700226061E-07  0.259806959168E-07
  0.276978224983E-07  0.295284381037E-07  0.314800434960E-07  0.335606351820E-07  0.357787381767E-07
  0.381434409342E-07  0.406644325867E-07  0.433520426444E-07  0.462172833201E-07  0.492718946506E-07
  0.525283926000E-07  0.560001203433E-07  0.597013029384E-07  0.636471056118E-07  0.678536958971E-07
  0.723383098798E-07  0.771193228204E-07  0.822163244456E-07  0.876501992151E-07  0.934432118941E-07
  0.996190987810E-07  0.106203164965E-06  0.113222388011E-06  0.120705528497E-06  0.128683247863E-06
  0.137188234035E-06  0.146255335368E-06  0.155921703433E-06  0.166226945240E-06  0.177213285526E-06
  0.188925739770E-06  0.201412298634E-06  0.214724124609E-06  0.228915761643E-06  0.244045358635E-06
  0.260174907693E-06  0.277370498144E-06  0.295702587333E-06  0.315246289310E-06  0.336081682615E-06
  0.358294138386E-06  0.381974670170E-06  0.407220306839E-06  0.434134490168E-06  0.462827498676E-06
  0.493416899493E-06  0.526028030084E-06  0.560794511816E-06  0.597858797463E-06  0.637372754912E-06
  0.679498289427E-06  0.724408007062E-06  0.772285921908E-06  0.823328210091E-06  0.877744013606E-06
  0.935756297274E-06  0.997602762347E-06  0.106353682050E-05  0.113382863217E-05  0.120876621358E-05
  0.128865661690E-05  0.137382718838E-05  0.146462690968E-05  0.156142782790E-05  0.166462658003E-05
  0.177464601820E-05  0.189193694244E-05  0.201697994780E-05  0.215028739375E-05  0.229240550360E-05
  0.244391660277E-05  0.260544150500E-05  0.277764205627E-05  0.296122384684E-05  0.315693910268E-05
  0.336558976785E-05  0.358803079077E-05  0.382517362769E-05  0.407798997766E-05  0.434751576455E-05
  0.463485538215E-05  0.494118621996E-05  0.526776348820E-05  0.561592536169E-05  0.598709846387E-05
  0.638280371328E-05  0.680466255663E-05  0.725440361387E-05  0.773386976265E-05  0.824502569109E-05
  0.878996594992E-05  0.937092353704E-05  0.999027904963E-05  0.106505704414E-04  0.113545034249E-04
  0.121049625620E-04  0.129050230872E-04  0.137579635135E-04  0.146672790708E-04  0.156366960344E-04
  0.166701869998E-04  0.177719871690E-04  0.189466117125E-04  0.201988742811E-04  0.215339067413E-04
  0.229571802168E-04  0.244745275212E-04  0.260921670758E-04  0.278167284093E-04  0.296552793445E-04
  0.316153549847E-04  0.337049886179E-04  0.359327446664E-04  0.383077538175E-04  0.408397504795E-04
  0.435391127175E-04  0.464169048330E-04  0.494849227641E-04  0.527557424909E-04  0.562427716480E-04
  0.599603045559E-04  0.639235808982E-04  0.681488482871E-04  0.726534289756E-04  0.774557909923E-04
  0.825756239913E-04  0.880339201338E-04  0.938530603333E-04  0.100056906223E-03  0.106670898226E-03
  0.113722160137E-03  0.121239610646E-03  0.129254082270E-03  0.137798448187E-03  0.146907757499E-03
  0.156619379487E-03  0.166973157466E-03  0.178011572870E-03  0.189779920266E-03  0.202326494021E-03
  0.215702787409E-03  0.229963704990E-03  0.245167789161E-03  0.261377461820E-03  0.278659282182E-03
  0.297084221817E-03  0.316727958083E-03  0.337671187211E-03  0.359999958351E-03  0.383806030018E-03
  0.409187250462E-03  0.436247963591E-03  0.465099442179E-03  0.495860350249E-03  0.528657236617E-03
  0.563625061732E-03  0.600907760127E-03  0.640658840922E-03  0.683042029015E-03  0.728231949802E-03
  0.776414860440E-03  0.827789430911E-03  0.882567578383E-03  0.940975358607E-03  0.100325391838E-02
  0.106966051343E-02  0.114046959628E-02  0.121597397924E-02  0.129648607781E-02  0.138233924029E-02
  0.147388916991E-02  0.157151544613E-02  0.167562315247E-02  0.178664461862E-02  0.190504128527E-02
  0.203130570091E-02  0.216596366037E-02  0.230957649582E-02  0.246274353177E-02  0.262610471662E-02
  0.280034344436E-02  0.298618958098E-02  0.318442271178E-02  0.339587562673E-02  0.362143806286E-02
  0.386206072404E-02  0.411875960060E-02  0.439262061291E-02  0.468480460554E-02  0.499655272064E-02
  0.532919218225E-02  0.568414252566E-02  0.606292230954E-02  0.646715635170E-02  0.689858353346E-02
  0.735906522149E-02  0.785059436110E-02  0.837530529947E-02  0.893548440341E-02  0.953358154205E-02
  0.101722225118E-01  0.108542224884E-01  0.115826005984E-01  0.123605957123E-01  0.131916835704E-01
  0.140795953634E-01  0.150283379016E-01  0.160422155178E-01  0.171258538655E-01  0.182842257846E-01
  0.195226794270E-01  0.208469688481E-01  0.222632872908E-01  0.237783034068E-01  0.253992006801E-01
  0.271337203420E-01  0.289902080841E-01  0.309776649036E-01  0.331058024374E-01  0.353851031602E-01
  0.378268858526E-01  0.404433767562E-01  0.432477868606E-01  0.462543957741E-01  0.494786426455E-01
  0.529372246047E-01  0.566482031831E-01  0.606311191586E-01  0.649071162358E-01  0.694990739190E-01
  0.744317498619E-01  0.797319318701E-01  0.854285995948E-01  0.915530957699E-01  0.981393066109E-01
  0.105223850699E+00  0.112846275302E+00  0.121049258637E+00  0.129878816022E+00  0.139384507210E+00
  0.149619641415E+00  0.160641475601E+00  0.172511400526E+00  0.185295107806E+00  0.199062729800E+00
  0.213888942558E+00  0.229853020242E+00  0.247038827535E+00  0.265534734435E+00  0.285433435665E+00
  0.306831654763E+00  0.329829710758E+00  0.354530923517E+00  0.381040832308E+00  0.409466201334E+00
  0.439913786089E+00  0.472488835864E+00  0.507293310900E+00  0.544423798224E+00  0.583969118556E+00
  0.626007628568E+00  0.670604238794E+00  0.717807188303E+00  0.767644643300E+00  0.820121218416E+00
  0.875214556477E+00  0.932872144309E+00  0.993008587218E+00  0.105550361051E+01  0.112020109893E+01
  0.118690951851E+01  0.125540408191E+01  0.132543100890E+01  0.139671547662E+01  0.146912968567E+01
  0.154287188983E+01  0.161821768711E+01  0.000000000000E+00  0.000000000000E+00  0.000000000000E+00
  0.000000000000E+00  0.000000000000E+00  0.000000000000E+00  0.000000000000E+00  0.000000000000E+00
  0.000000000000E+00  0.000000000000E+00  0.000000000000E+00  0.000000000000E+00  0.000000000000E+00
  0.000000000000E+00  0.000000000000E+00  0.000000000000E+00  0.000000000000E+00  0.000000000000E+00
  0.000000000000E+00  0.000000000000E+00  0.000000000000E+00  0.000000000000E+00  0.000000000000E+00
  0.000000000000E+00  0.000000000000E+00  0.000000000000E+00  0.000000000000E+00  0.000000000000E+00
  0.000000000000E+00  0.000000000000E+00
 ae wavefunction
  0.128109546887E-05  0.135757907672E-05  0.143831918595E-05  0.152357153402E-05  0.161360647665E-05
  0.170870988729E-05  0.180918410512E-05  0.191534894660E-05  0.202754277353E-05  0.214612362768E-05
  0.227147043185E-05  0.240398426809E-05  0.254408972942E-05  0.269223635893E-05  0.284890017100E-05
  0.301458527334E-05  0.318982558440E-05  0.337518665655E-05  0.357126761488E-05  0.377870321304E-05
  0.399816602031E-05  0.423036874062E-05  0.447606667793E-05  0.473606035619E-05  0.501119830114E-05
  0.530237999545E-05  0.561055902107E-05  0.593674639631E-05  0.628201412224E-05  0.664749895294E-05
  0.703440640093E-05  0.744401499571E-05  0.787768080916E-05  0.833684226728E-05  0.882302526396E-05
  0.933784859833E-05  0.988302975504E-05  0.104603910499E-04  0.110718661645E-04  0.117195070935E-04
  0.124054915330E-04  0.131321307364E-04  0.139018778684E-04  0.147173368887E-04  0.155812720000E-04
  0.164966176954E-04  0.174664894438E-04  0.184941950545E-04  0.195832467635E-04  0.207373740880E-04
  0.219605374983E-04  0.232569429576E-04  0.246310573894E-04  0.260876251219E-04  0.276316853854E-04
  0.292685909152E-04  0.310040277407E-04  0.328440362293E-04  0.347950334685E-04  0.368638370685E-04
  0.390576904756E-04  0.413842898906E-04  0.438518128952E-04  0.464689488935E-04  0.492449314798E-04
  0.521895728551E-04  0.553133004226E-04  0.586271956972E-04  0.621430356675E-04  0.658733367737E-04
  0.698314016554E-04  0.740313688445E-04  0.784882655866E-04  0.832180639786E-04  0.882377406387E-04
  0.935653401084E-04  0.992200422397E-04  0.105222233778E-03  0.111593584437E-03  0.118357127715E-03
  0.125537346731E-03  0.133160265408E-03  0.141253545335E-03  0.149846588601E-03  0.158970647013E-03
  0.168658938058E-03  0.178946768005E-03  0.189871662589E-03  0.201473505701E-03  0.213794686603E-03
  0.226880256107E-03  0.240778092294E-03  0.255539076310E-03  0.271217278824E-03  0.287870157768E-03
  0.305558767996E-03  0.324347983571E-03  0.344306733375E-03  0.365508250795E-03  0.388030338298E-03
  0.411955647713E-03  0.437371977084E-03  0.464372585037E-03  0.493056523588E-03  0.523528990417E-03
  0.555901701656E-03  0.590293286270E-03  0.626829703201E-03  0.665644682460E-03  0.706880191407E-03
  0.750686927518E-03  0.797224839002E-03  0.846663674654E-03  0.899183564387E-03  0.954975631981E-03
  0.101424264158E-02  0.107719967953E-02  0.114407487327E-02  0.121511014892E-02  0.129056202934E-02
  0.137070247446E-02  0.145581976570E-02  0.154621943635E-02  0.164222524982E-02  0.174418022761E-02
  0.185244772906E-02  0.196741258468E-02  0.208948228514E-02  0.221908822767E-02  0.235668702205E-02
  0.250276185768E-02  0.265782393392E-02  0.282241395519E-02  0.299710369248E-02  0.318249761299E-02
  0.337923457903E-02  0.358798961759E-02  0.380947576152E-02  0.404444596302E-02  0.429369508013E-02
  0.455806193625E-02  0.483843145251E-02  0.513573685263E-02  0.545096193885E-02  0.578514343766E-02
  0.613937341307E-02  0.651480174442E-02  0.691263866538E-02  0.733415735956E-02  0.778069660744E-02
  0.825366347827E-02  0.875453605950E-02  0.928486621490E-02  0.984628236145E-02  0.104404922533E-01
  0.110692857600E-01  0.117345376228E-01  0.124382101746E-01  0.131823560014E-01  0.139691205269E-01
  0.148007444945E-01  0.156795663217E-01  0.166080242970E-01  0.175886585877E-01  0.186241130223E-01
  0.197171366099E-01  0.208705847529E-01  0.220874201073E-01  0.233707130397E-01  0.247236416263E-01
  0.261494911342E-01  0.276516529212E-01  0.292336226849E-01  0.308989979866E-01  0.326514749706E-01
  0.344948441939E-01  0.364329854758E-01  0.384698616718E-01  0.406095112687E-01  0.428560396953E-01
  0.452136092345E-01  0.476864274200E-01  0.502787337924E-01  0.529947848891E-01  0.558388373341E-01
  0.588151288919E-01  0.619278573472E-01  0.651811570688E-01  0.685790731152E-01  0.721255327398E-01
  0.758243141551E-01  0.796790124181E-01  0.836930023032E-01  0.878693980374E-01  0.922110097813E-01
  0.967202967493E-01  0.101399316881E+00  0.106249672986E+00  0.111272455323E+00  0.116468180566E+00
  0.121836727180E+00  0.127377267231E+00  0.133088194707E+00  0.138967050463E+00  0.145010443964E+00
  0.151213972038E+00  0.157572134935E+00  0.164078250032E+00  0.170724363629E+00  0.177501161354E+00
  0.184397877786E+00  0.191402206017E+00  0.198500207968E+00  0.205676226364E+00  0.212912799368E+00
  0.220190578868E+00  0.227488253442E+00  0.234782476877E+00  0.242047802981E+00  0.249256627187E+00
  0.256379135227E+00  0.263383259139E+00  0.270234641075E+00  0.276896606015E+00  0.283330145570E+00
  0.289493916296E+00  0.295344257272E+00  0.300835232492E+00  0.305918703937E+00  0.310544440476E+00
  0.314660266346E+00  0.318212250739E+00  0.321144937911E+00  0.323401615764E+00  0.324924620628E+00
  0.325655676728E+00  0.325536270084E+00  0.324508057155E+00  0.322513308814E+00  0.319495389605E+00
  0.315399271640E+00  0.310172081666E+00  0.303763679360E+00  0.296127264340E+00  0.287220008979E+00
  0.277003713609E+00  0.265445480170E+00  0.252518399627E+00  0.238202247808E+00  0.222484183340E+00
  0.205359440469E+00  0.186832008500E+00  0.166915288497E+00  0.145632716851E+00  0.123018344309E+00
  0.991173582543E-01  0.739865354631E-01  0.476946124746E-01  0.203225610280E-01 -0.803624310958E-02
 -0.372759684963E-01 -0.672784032289E-01 -0.979131668884E-01 -0.129038071495E+00 -0.160499649220E+00
 -0.192133872407E+00 -0.223767096815E+00 -0.255217248905E+00 -0.286295230032E+00 -0.316806403047E+00
 -0.346551876772E+00 -0.375329220910E+00 -0.402932418432E+00 -0.429151411166E+00 -0.453772276690E+00
 -0.476579176536E+00 -0.497358167493E+00 -0.515901588063E+00 -0.532011618740E+00 -0.545502680627E+00
 -0.556203136700E+00 -0.563956786563E+00 -0.568624368354E+00 -0.570085067146E+00 -0.568237931626E+00
 -0.563003078827E+00 -0.554322586707E+00 -0.542161016878E+00 -0.526505546309E+00 -0.507365723155E+00
 -0.484772875894E+00 -0.458779216060E+00 -0.429456676807E+00 -0.396895529398E+00 -0.361202816322E+00
 -0.322500637711E+00 -0.280924324087E+00 -0.236620523423E+00 -0.189745228916E+00 -0.140461768023E+00
 -0.889387725416E-01 -0.353481462518E-01  0.201369534816E-01  0.773441044496E-01  0.136103562446E+00
  0.196250142225E+00  0.257625022037E+00  0.320077460339E+00  0.383466418769E+00  0.447662094181E+00
  0.512547369656E+00  0.578019202524E+00  0.643989969000E+00  0.710388781674E+00  0.777162783251E+00
  0.844278404024E+00  0.911722554833E+00  0.979503724318E+00  0.104765297046E+01  0.111622484831E+01
  0.118529838583E+01  0.125497830062E+01  0.132539669633E+01  0.139671547662E+01  0.146912968567E+01
  0.154287188983E+01  0.161821768711E+01  0.000000000000E+00  0.000000000000E+00  0.000000000000E+00
  0.000000000000E+00  0.000000000000E+00  0.000000000000E+00  0.000000000000E+00  0.000000000000E+00
  0.000000000000E+00  0.000000000000E+00  0.000000000000E+00  0.000000000000E+00  0.000000000000E+00
  0.000000000000E+00  0.000000000000E+00  0.000000000000E+00  0.000000000000E+00  0.000000000000E+00
  0.000000000000E+00  0.000000000000E+00  0.000000000000E+00  0.000000000000E+00  0.000000000000E+00
  0.000000000000E+00  0.000000000000E+00  0.000000000000E+00  0.000000000000E+00  0.000000000000E+00
  0.000000000000E+00  0.000000000000E+00
 pseudo wavefunction
  0.465902283337E-08  0.496694882821E-08  0.529522639067E-08  0.564520060469E-08  0.601830545400E-08
  0.641606969776E-08  0.684012313452E-08  0.729220328008E-08  0.777416248687E-08  0.828797553371E-08
  0.883574771729E-08  0.941972347842E-08  0.100422955984E-07  0.107060150031E-07  0.114136012153E-07
  0.121679534975E-07  0.129721627315E-07  0.138295240827E-07  0.147435505022E-07  0.157179871201E-07
  0.167568265915E-07  0.178643254552E-07  0.190450215753E-07  0.203037527340E-07  0.216456764542E-07
  0.230762911317E-07  0.246014585646E-07  0.262274279714E-07  0.279608615962E-07  0.298088620069E-07
  0.317790011971E-07  0.338793516118E-07  0.361185192230E-07  0.385056787921E-07  0.410506114626E-07
  0.437637448369E-07  0.466561957031E-07  0.497398155841E-07  0.530272392985E-07  0.565319367304E-07
  0.602682680208E-07  0.642515424066E-07  0.684980809492E-07  0.730252834080E-07  0.778516995339E-07
  0.829971050757E-07  0.884825828084E-07  0.943306089185E-07  0.100565145097E-06  0.107211736722E-06
  0.114297617524E-06  0.121851821178E-06  0.129905300264E-06  0.138491053092E-06  0.147644258909E-06
  0.157402422043E-06  0.167805525572E-06  0.178896195151E-06  0.190719873670E-06  0.203325007443E-06
  0.216763244722E-06  0.231089647311E-06  0.246362916183E-06  0.262645631998E-06  0.280004511521E-06
  0.298510680988E-06  0.318239967537E-06  0.339273209904E-06  0.361696589648E-06  0.385601984275E-06
  0.411087343693E-06  0.438257091554E-06  0.467222553119E-06  0.498102411397E-06  0.531023193445E-06
  0.566119788790E-06  0.603536002131E-06  0.643425142561E-06  0.685950651737E-06  0.731286773560E-06
  0.779619268126E-06  0.831146172859E-06  0.886078613940E-06  0.944641671386E-06  0.100707530128E-05
  0.107363531897E-05  0.114459444725E-05  0.122024343380E-05  0.130089224251E-05  0.138687132350E-05
  0.147853296712E-05  0.157625274743E-05  0.168043106104E-05  0.179149476772E-05  0.190989893940E-05
  0.203612872478E-05  0.217070133716E-05  0.231416817367E-05  0.246711707457E-05  0.263017473182E-05
  0.280400925693E-05  0.298933291840E-05  0.318690506023E-05  0.339753521318E-05  0.362208641176E-05
  0.386147873039E-05  0.411669305329E-05  0.438877509355E-05  0.467883967777E-05  0.498807531396E-05
  0.531774906127E-05  0.566921172159E-05  0.604390337429E-05  0.644335927676E-05  0.686921615489E-05
  0.732321890933E-05  0.780722776497E-05  0.832322589294E-05  0.887332753633E-05  0.945978667303E-05
  0.100850062510E-04  0.107515480339E-04  0.114621430977E-04  0.122197030207E-04  0.130273318129E-04
  0.138883386347E-04  0.148062513553E-04  0.157848310073E-04  0.168280871969E-04  0.179402945329E-04
  0.191260101403E-04  0.203900923325E-04  0.217377205174E-04  0.231744164183E-04  0.247060666984E-04
  0.263389470793E-04  0.280797480549E-04  0.299356023033E-04  0.319141139113E-04  0.340233895299E-04
  0.362720715886E-04  0.386693737053E-04  0.412251184362E-04  0.439497775197E-04  0.468545147814E-04
  0.499512318729E-04  0.532526170346E-04  0.567721970803E-04  0.605243928174E-04  0.645245781297E-04
  0.687891429641E-04  0.733355604805E-04  0.781824586385E-04  0.833496965152E-04  0.888584456655E-04
  0.947312768598E-04  0.100992252553E-03  0.107667025462E-03  0.114782943661E-03  0.122369162618E-03
  0.130456764635E-03  0.139078886181E-03  0.148270853637E-03  0.158070328013E-03  0.168517459225E-03
  0.179655050563E-03  0.191528734029E-03  0.204187157260E-03  0.217682182793E-03  0.232069100505E-03
  0.247406854079E-03  0.263758282432E-03  0.281190377098E-03  0.299774556603E-03  0.319586958968E-03
  0.340708753537E-03  0.363226473393E-03  0.387232369735E-03  0.412824789650E-03  0.440108578849E-03
  0.469195510981E-03  0.500204745304E-03  0.533263314577E-03  0.568506645160E-03  0.606079111451E-03
  0.646134626930E-03  0.688837274206E-03  0.734361976663E-03  0.782895214424E-03  0.834635787563E-03
  0.889795629682E-03  0.948600675163E-03  0.101129178363E-02  0.107812572540E-02  0.114937623190E-02
  0.122533511540E-02  0.130631346252E-02  0.139264290645E-02  0.148467698301E-02  0.158279257609E-02
  0.168739145828E-02  0.179890193303E-02  0.191778058493E-02  0.204451414522E-02  0.217962148015E-02
  0.232365571007E-02  0.247720646803E-02  0.264090230685E-02  0.281541326447E-02  0.300145359778E-02
  0.319978469620E-02  0.341121818639E-02  0.363661924083E-02  0.387691010335E-02  0.413307384589E-02
  0.440615837134E-02  0.469728067846E-02  0.500763140601E-02  0.533847967388E-02  0.569117824065E-02
  0.606716899773E-02  0.646798882198E-02  0.689527580958E-02  0.735077591572E-02  0.783635002590E-02
  0.835398148647E-02  0.890578412341E-02  0.949401078031E-02  0.101210624083E-01  0.107894977427E-01
  0.115020436024E-01  0.122616058521E-01  0.130712810665E-01  0.139343689414E-01  0.148543854962E-01
  0.158350771164E-01  0.168804354858E-01  0.179947134622E-01  0.191824419524E-01  0.204484478437E-01
  0.217978730530E-01  0.232361947580E-01  0.247692468744E-01  0.264032428493E-01  0.281447998385E-01
  0.300009643433E-01  0.319792393771E-01  0.340876132388E-01  0.363345899680E-01  0.387292215560E-01
  0.412811419876E-01  0.440006031852E-01  0.468985129219E-01  0.499864747675E-01  0.532768301203E-01
  0.567827023703E-01  0.605180432251E-01  0.644976812101E-01  0.687373723378E-01  0.732538529091E-01
  0.780648943787E-01  0.831893601732E-01  0.886472643003E-01  0.944598315266E-01  0.100649558823E+00
  0.107240277690E+00  0.114257216859E+00  0.121727064747E+00  0.129678030869E+00  0.138139905232E+00
  0.147144114527E+00  0.156723773632E+00  0.166913730685E+00  0.177750603546E+00  0.189272805108E+00
  0.201520554348E+00  0.214535869453E+00  0.228362538634E+00  0.243046063472E+00  0.258633568672E+00
  0.275173671041E+00  0.292716299299E+00  0.311312454872E+00  0.331013902287E+00  0.351872775941E+00
  0.373941088036E+00  0.397270120237E+00  0.421909679178E+00  0.447907193292E+00  0.475306625653E+00
  0.504147174578E+00  0.534461730791E+00  0.566275057049E+00  0.599601653524E+00  0.634443270015E+00
  0.670786024668E+00  0.708597088590E+00  0.747820897081E+00  0.788374851781E+00  0.830144484627E+00
  0.872978064982E+00  0.916680646799E+00  0.961007574477E+00  0.100565749554E+01  0.105026496713E+01
  0.109439279308E+01  0.113752429105E+01  0.117905576585E+01  0.121828955760E+01  0.125442814196E+01
  0.128656988364E+01  0.131370718283E+01  0.133472790167E+01  0.134842110880E+01  0.135348832267E+01
  0.134856155411E+01  0.133222952412E+01  0.130307343749E+01  0.125971359282E+01  0.120086786459E+01
  0.112542265927E+01  0.103251627806E+01  0.921633671096E+00  0.792711041206E+00  0.646321141079E+00
  0.483770730857E+00  0.306958358326E+00  0.000000000000E+00  0.000000000000E+00  0.000000000000E+00
  0.000000000000E+00  0.000000000000E+00  0.000000000000E+00  0.000000000000E+00  0.000000000000E+00
  0.000000000000E+00  0.000000000000E+00  0.000000000000E+00  0.000000000000E+00  0.000000000000E+00
  0.000000000000E+00  0.000000000000E+00  0.000000000000E+00  0.000000000000E+00  0.000000000000E+00
  0.000000000000E+00  0.000000000000E+00  0.000000000000E+00  0.000000000000E+00  0.000000000000E+00
  0.000000000000E+00  0.000000000000E+00  0.000000000000E+00  0.000000000000E+00  0.000000000000E+00
  0.000000000000E+00  0.000000000000E+00
 ae wavefunction
  0.200717994513E-05  0.212701224082E-05  0.225351349502E-05  0.238708439015E-05  0.252814851207E-05
  0.267715375941E-05  0.283457382889E-05  0.300090980014E-05  0.317669180909E-05  0.336248082579E-05
  0.355887053607E-05  0.376648934434E-05  0.398600249132E-05  0.421811430887E-05  0.446357060338E-05
  0.472316119712E-05  0.499772261908E-05  0.528814096142E-05  0.559535491722E-05  0.592035900142E-05
  0.626420697756E-05  0.662801549112E-05  0.701296793222E-05  0.742031854052E-05  0.785139676367E-05
  0.830761188738E-05  0.879045795876E-05  0.930151901470E-05  0.984247463848E-05  0.104151058667E-04
  0.110213014651E-04  0.116630646004E-04  0.123425199311E-04  0.130619211459E-04  0.138236589762E-04
  0.146302697149E-04  0.154844442731E-04  0.163890378088E-04  0.173470799650E-04  0.183617857552E-04
  0.194365671385E-04  0.205750453284E-04  0.217810638816E-04  0.230587026168E-04  0.244122924176E-04
  0.258464309746E-04  0.273659995266E-04  0.289761806668E-04  0.306824772793E-04  0.324907326793E-04
  0.344071520330E-04  0.364383251399E-04  0.385912506649E-04  0.408733619044E-04  0.432925541996E-04
  0.458572140842E-04  0.485762502885E-04  0.514591267109E-04  0.545158974854E-04  0.577572442751E-04
  0.611945159323E-04  0.648397706733E-04  0.687058209302E-04  0.728062810449E-04  0.771556179825E-04
  0.817692052541E-04  0.866633802531E-04  0.918555052181E-04  0.973640320368E-04  0.103208571150E-03
  0.109409964793E-03  0.115990364857E-03  0.122973315640E-03  0.130383841811E-03  0.138248541889E-03
  0.146595687589E-03  0.155455329393E-03  0.164859408708E-03  0.174841877059E-03  0.185438822699E-03
  0.196688605107E-03  0.208631997842E-03  0.221312340303E-03  0.234775698845E-03  0.249071037898E-03
  0.264250401650E-03  0.280369106916E-03  0.297485947889E-03  0.315663413431E-03  0.334967917720E-03
  0.355470044947E-03  0.377244808947E-03  0.400371928636E-03  0.424936120129E-03  0.451027406557E-03
  0.478741446537E-03  0.508179882447E-03  0.539450709544E-03  0.572668667175E-03  0.607955653269E-03
  0.645441163472E-03  0.685262756228E-03  0.727566545296E-03  0.772507721162E-03  0.820251102945E-03
  0.870971722440E-03  0.924855441988E-03  0.982099608009E-03  0.104291374204E-02  0.110752027126E-02
  0.117615530045E-02  0.124906942767E-02  0.132652860562E-02  0.140881505116E-02  0.149622820525E-02
  0.158908574576E-02  0.168772465562E-02  0.179250234904E-02  0.190379785832E-02  0.202201308406E-02
  0.214757411157E-02  0.228093259637E-02  0.242256722159E-02  0.257298523038E-02  0.273272403626E-02
  0.290235291446E-02  0.308247477716E-02  0.327372803596E-02  0.347678855421E-02  0.369237169256E-02
  0.392123445031E-02  0.416417770562E-02  0.442204855720E-02  0.469574276994E-02  0.498620732714E-02
  0.529444309115E-02  0.562150757453E-02  0.596851782328E-02  0.633665341326E-02  0.672715956058E-02
  0.714135034634E-02  0.758061205522E-02  0.804640662720E-02  0.854027522056E-02  0.906384188360E-02
  0.961881733190E-02  0.102070028262E-01  0.108302941456E-01  0.114906856487E-01  0.121902744151E-01
  0.129312644556E-01  0.137159709811E-01  0.145468247152E-01  0.154263762355E-01  0.163573003243E-01
  0.173424003086E-01  0.183846123666E-01  0.194870097713E-01  0.206528070454E-01  0.218853639896E-01
  0.231881895509E-01  0.245649454861E-01  0.260194497770E-01  0.275556797453E-01  0.291777748114E-01
  0.308900388363E-01  0.326969419790E-01  0.346031219968E-01  0.366133849072E-01  0.387327049275E-01
  0.409662235951E-01  0.433192479698E-01  0.457972478073E-01  0.484058515881E-01  0.511508412743E-01
  0.540381456615E-01  0.570738321831E-01  0.602640970127E-01  0.636152533074E-01  0.671337174185E-01
  0.708259928941E-01  0.746986520850E-01  0.787583151594E-01  0.830116263230E-01  0.874652270362E-01
  0.921257260117E-01  0.969996657721E-01  0.102093485543E+00  0.107413480259E+00  0.112965755449E+00
  0.118756177783E+00  0.124790321062E+00  0.131073407430E+00  0.137610243618E+00  0.144405152021E+00
  0.151461896453E+00  0.158783602418E+00  0.166372671795E+00  0.174230691833E+00  0.182358338438E+00
  0.190755273714E+00  0.199420037843E+00  0.208349935403E+00  0.217540916296E+00  0.226987451556E+00
  0.236682404386E+00  0.246616896849E+00  0.256780172798E+00  0.267159457696E+00  0.277739816173E+00
  0.288504008274E+00  0.299432345527E+00  0.310502548138E+00  0.321689604732E+00  0.332965636230E+00
  0.344299765454E+00  0.355657994078E+00  0.367003088363E+00  0.378294474850E+00  0.389488146852E+00
  0.400536582286E+00  0.411388673279E+00  0.421989668418E+00  0.432281129470E+00  0.442200906098E+00
  0.451683134101E+00  0.460658264708E+00  0.469053133817E+00  0.476791080470E+00  0.483792122832E+00
  0.489973197680E+00  0.495248466030E+00  0.499529684191E+00  0.502726637315E+00  0.504747632163E+00
  0.505500047060E+00  0.504890938903E+00  0.502827708126E+00  0.499218822779E+00  0.493974602069E+00
  0.487008058641E+00  0.478235797675E+00  0.467578970107E+00  0.454964276335E+00  0.440325016194E+00
  0.423602180082E+00  0.404745575295E+00  0.383714980362E+00  0.360481319098E+00  0.335027844399E+00
  0.307351320327E+00  0.277463189255E+00  0.245390708930E+00  0.211178042582E+00  0.174887283382E+00
  0.136599393144E+00  0.964150340679E-01  0.544552719576E-01  0.108621296562E-01 -0.342010294818E-01
 -0.805493068310E-01 -0.127976280211E+00 -0.176254240674E+00 -0.225134677357E+00 -0.274349042618E+00
 -0.323609842290E+00 -0.372612103830E+00 -0.421035257410E+00 -0.468545385999E+00 -0.514797627743E+00
 -0.559438278677E+00 -0.602106025224E+00 -0.642432034558E+00 -0.680039515695E+00 -0.714544428446E+00
 -0.745559123582E+00 -0.772698991012E+00 -0.795590031800E+00 -0.813875160176E+00 -0.827218759382E+00
 -0.835310258067E+00 -0.837867506219E+00 -0.834640279325E+00 -0.825413901711E+00 -0.810012831885E+00
 -0.788304024960E+00 -0.760199924541E+00 -0.725661006118E+00 -0.684697852276E+00 -0.637372794841E+00
 -0.583801179238E+00 -0.524152320261E+00 -0.458650218439E+00 -0.387574101707E+00 -0.311258847722E+00
 -0.230095333438E+00 -0.144530746184E+00 -0.550688764593E-01  0.377295997420E-01  0.133246858392E+00
  0.230807707408E+00  0.329679448824E+00  0.429071879002E+00  0.528137500941E+00  0.625972044230E+00
  0.721615414077E+00  0.814053224196E+00  0.902219107718E+00  0.984998045499E+00  0.106123100762E+01
  0.112972124804E+01  0.118924264241E+01  0.123855048759E+01  0.127639519874E+01  0.130153933726E+01
  0.131277839317E+01  0.130896573255E+01  0.128904211680E+01  0.125207020126E+01  0.119727440476E+01
  0.112408644858E+01  0.103219665730E+01  0.921610719244E+00  0.792711041206E+00  0.646321141079E+00
  0.483770730857E+00  0.306958358326E+00  0.000000000000E+00  0.000000000000E+00  0.000000000000E+00
  0.000000000000E+00  0.000000000000E+00  0.000000000000E+00  0.000000000000E+00  0.000000000000E+00
  0.000000000000E+00  0.000000000000E+00  0.000000000000E+00  0.000000000000E+00  0.000000000000E+00
  0.000000000000E+00  0.000000000000E+00  0.000000000000E+00  0.000000000000E+00  0.000000000000E+00
  0.000000000000E+00  0.000000000000E+00  0.000000000000E+00  0.000000000000E+00  0.000000000000E+00
  0.000000000000E+00  0.000000000000E+00  0.000000000000E+00  0.000000000000E+00  0.000000000000E+00
  0.000000000000E+00  0.000000000000E+00
 End of Dataset
  PAW_PBE Ni 02Aug2007                   
   10.0000000000000     
 parameters from PSCTR are:
   VRHFIN =Ni:
   LEXCH  = PE
   EATOM  =  1077.6739 eV,   79.2068 Ry

   TITEL  = PAW_PBE Ni 02Aug2007
   LULTRA =        F    use ultrasoft PP ?
   IUNSCR =        1    unscreen: 0-lin 1-nonlin 2-no
   RPACOR =    2.000    partial core radius
   POMASS =   58.690; ZVAL   =   10.000    mass and valenz
   RCORE  =    2.300    outmost cutoff radius
   RWIGS  =    2.430; RWIGS  =    1.286    wigner-seitz radius (au A)
   ENMAX  =  269.532; ENMIN  =  202.149 eV
   RCLOC  =    1.201    cutoff for local pot
   LCOR   =        T    correct aug charges
   LPAW   =        T    paw PP
   EAUG   =  544.565
   DEXC   =    0.000
   RMAX   =    2.357    core radius for proj-oper
   RAUG   =    1.300    factor for augmentation sphere
   RDEP   =    2.390    radius for radial grids
   RDEPT  =    1.838    core radius for aug-charge
 
   Atomic configuration
    9 entries
     n  l   j            E        occ.
     1  0  0.50     -8206.4253   2.0000
     2  0  0.50      -976.1748   2.0000
     2  1  1.50      -839.0571   6.0000
     3  0  0.50      -105.9991   2.0000
     3  1  1.50       -66.4603   6.0000
     3  2  2.50        -4.6458   9.0000
     4  0  0.50        -4.4926   1.0000
     4  1  1.50        -4.0817   0.0000
     4  3  2.50        -1.3606   0.0000
   Description
     l       E           TYP  RCUT    TYP  RCUT
     2     -4.6457903     23  2.300
     2     -6.0063729     23  2.300
     0     -4.4925590     23  2.300
     0      5.0102601     23  2.300
     1     -2.7211652     23  2.300
     1     16.5183231     23  2.300
   Error from kinetic energy argument (eV)
   NDATA  =      100
   STEP   =   20.000   1.050
  105.      104.      103.      102.      101.      99.1      97.4      96.5
  94.6      92.6      91.6      89.4      87.2      84.9      82.5      80.1
  77.5      75.0      72.4      68.4      65.7      63.1      59.0      56.3
  53.7      49.7      45.8      43.3      39.6      36.1      32.7      29.4
  26.3      23.5      20.8      18.3      15.3      13.2      10.8      9.22
  7.37      5.79      4.49      3.41      2.55      1.86      1.33     0.848
 0.572     0.337     0.190     0.118     0.667E-01 0.424E-01 0.322E-01 0.306E-01
 0.305E-01 0.294E-01 0.264E-01 0.217E-01 0.165E-01 0.117E-01 0.789E-02 0.498E-02
 0.367E-02 0.309E-02 0.299E-02 0.296E-02 0.272E-02 0.231E-02 0.172E-02 0.119E-02
 0.821E-03 0.637E-03 0.582E-03 0.578E-03 0.545E-03 0.461E-03 0.336E-03 0.240E-03
 0.179E-03 0.162E-03 0.160E-03 0.147E-03 0.117E-03 0.842E-04 0.632E-04 0.563E-04
 0.553E-04 0.495E-04 0.375E-04 0.277E-04 0.232E-04 0.227E-04 0.204E-04 0.156E-04
 0.116E-04 0.105E-04 0.101E-04 0.836E-05
END of PSCTR-controll parameters
 local part
   81.2582175088937     
  0.50999401E+02  0.50996976E+02  0.50989738E+02  0.50977670E+02  0.50960766E+02
  0.50939020E+02  0.50912421E+02  0.50880955E+02  0.50844608E+02  0.50803364E+02
  0.50757201E+02  0.50706097E+02  0.50650029E+02  0.50588970E+02  0.50522889E+02
  0.50451756E+02  0.50375538E+02  0.50294198E+02  0.50207699E+02  0.50116003E+02
  0.50019069E+02  0.49916856E+02  0.49809321E+02  0.49696421E+02  0.49578114E+02
  0.49454355E+02  0.49325101E+02  0.49190311E+02  0.49049942E+02  0.48903954E+02
  0.48752309E+02  0.48594969E+02  0.48431899E+02  0.48263068E+02  0.48088445E+02
  0.47908003E+02  0.47721719E+02  0.47529572E+02  0.47331545E+02  0.47127626E+02
  0.46917805E+02  0.46702078E+02  0.46480444E+02  0.46252907E+02  0.46019477E+02
  0.45780168E+02  0.45534998E+02  0.45283992E+02  0.45027181E+02  0.44764599E+02
  0.44496288E+02  0.44222295E+02  0.43942675E+02  0.43657487E+02  0.43366797E+02
  0.43070678E+02  0.42769210E+02  0.42462479E+02  0.42150577E+02  0.41833604E+02
  0.41511665E+02  0.41184875E+02  0.40853353E+02  0.40517224E+02  0.40176622E+02
  0.39831687E+02  0.39482562E+02  0.39129401E+02  0.38772361E+02  0.38411605E+02
  0.38047302E+02  0.37679628E+02  0.37308760E+02  0.36934885E+02  0.36558190E+02
  0.36178869E+02  0.35797119E+02  0.35413142E+02  0.35027141E+02  0.34639324E+02
  0.34249901E+02  0.33859084E+02  0.33467086E+02  0.33074124E+02  0.32680413E+02
  0.32286172E+02  0.31891616E+02  0.31496963E+02  0.31102429E+02  0.30708229E+02
  0.30314576E+02  0.29921683E+02  0.29529757E+02  0.29139004E+02  0.28749627E+02
  0.28361824E+02  0.27975790E+02  0.27591715E+02  0.27209783E+02  0.26830173E+02
  0.26453061E+02  0.26078612E+02  0.25706989E+02  0.25338345E+02  0.24972830E+02
  0.24610583E+02  0.24251738E+02  0.23896422E+02  0.23544751E+02  0.23196836E+02
  0.22852780E+02  0.22512678E+02  0.22176614E+02  0.21844669E+02  0.21516912E+02
  0.21193404E+02  0.20874201E+02  0.20559347E+02  0.20248882E+02  0.19942836E+02
  0.19641232E+02  0.19344086E+02  0.19051406E+02  0.18763193E+02  0.18479444E+02
  0.18200146E+02  0.17925282E+02  0.17654829E+02  0.17388758E+02  0.17127035E+02
  0.16869622E+02  0.16616477E+02  0.16367551E+02  0.16122795E+02  0.15882155E+02
  0.15645574E+02  0.15412992E+02  0.15184350E+02  0.14959583E+02  0.14738628E+02
  0.14521418E+02  0.14307888E+02  0.14097971E+02  0.13891601E+02  0.13688711E+02
  0.13489236E+02  0.13293111E+02  0.13100272E+02  0.12910658E+02  0.12724207E+02
  0.12540861E+02  0.12360563E+02  0.12183258E+02  0.12008895E+02  0.11837422E+02
  0.11668794E+02  0.11502965E+02  0.11339893E+02  0.11179539E+02  0.11021866E+02
  0.10866841E+02  0.10714431E+02  0.10564608E+02  0.10417346E+02  0.10272622E+02
  0.10130412E+02  0.99906981E+01  0.98534626E+01  0.97186899E+01  0.95863658E+01
  0.94564779E+01  0.93290149E+01  0.92039666E+01  0.90813236E+01  0.89610772E+01
  0.88432193E+01  0.87277416E+01  0.86146361E+01  0.85038946E+01  0.83955082E+01
  0.82894675E+01  0.81857624E+01  0.80843814E+01  0.79853120E+01  0.78885402E+01
  0.77940505E+01  0.77018256E+01  0.76118461E+01  0.75240910E+01  0.74385367E+01
  0.73551577E+01  0.72739260E+01  0.71948114E+01  0.71177811E+01  0.70427999E+01
  0.69698300E+01  0.68988314E+01  0.68297614E+01  0.67625750E+01  0.66972250E+01
  0.66336616E+01  0.65718332E+01  0.65116860E+01  0.64531641E+01  0.63962100E+01
  0.63407646E+01  0.62867672E+01  0.62341557E+01  0.61828673E+01  0.61328377E+01
  0.60840024E+01  0.60362961E+01  0.59896533E+01  0.59440083E+01  0.58992957E+01
  0.58554504E+01  0.58124078E+01  0.57701042E+01  0.57284769E+01  0.56874644E+01
  0.56470065E+01  0.56070450E+01  0.55675231E+01  0.55283864E+01  0.54895825E+01
  0.54510613E+01  0.54127753E+01  0.53746798E+01  0.53367327E+01  0.52988949E+01
  0.52611301E+01  0.52234054E+01  0.51856909E+01  0.51479598E+01  0.51101888E+01
  0.50723577E+01  0.50344496E+01  0.49964508E+01  0.49583509E+01  0.49201427E+01
  0.48818222E+01  0.48433882E+01  0.48048426E+01  0.47661904E+01  0.47274390E+01
  0.46885986E+01  0.46496819E+01  0.46107038E+01  0.45716817E+01  0.45326346E+01
  0.44935838E+01  0.44545519E+01  0.44155632E+01  0.43766433E+01  0.43378188E+01
  0.42991173E+01  0.42605671E+01  0.42221970E+01  0.41840362E+01  0.41461140E+01
  0.41084596E+01  0.40711021E+01  0.40340701E+01  0.39973916E+01  0.39610938E+01
  0.39252030E+01  0.38897447E+01  0.38547427E+01  0.38202199E+01  0.37861975E+01
  0.37526951E+01  0.37197309E+01  0.36873210E+01  0.36554800E+01  0.36242203E+01
  0.35935526E+01  0.35634855E+01  0.35340257E+01  0.35051778E+01  0.34769444E+01
  0.34493260E+01  0.34223215E+01  0.33959274E+01  0.33701385E+01  0.33449478E+01
  0.33203465E+01  0.32963241E+01  0.32728684E+01  0.32499657E+01  0.32276009E+01
  0.32057575E+01  0.31844180E+01  0.31635635E+01  0.31431743E+01  0.31232298E+01
  0.31037086E+01  0.30845887E+01  0.30658478E+01  0.30474630E+01  0.30294113E+01
  0.30116696E+01  0.29942150E+01  0.29770244E+01  0.29600752E+01  0.29433452E+01
  0.29268127E+01  0.29104564E+01  0.28942560E+01  0.28781919E+01  0.28622452E+01
  0.28463982E+01  0.28306341E+01  0.28149372E+01  0.27992930E+01  0.27836882E+01
  0.27681106E+01  0.27525494E+01  0.27369950E+01  0.27214393E+01  0.27058751E+01
  0.26902970E+01  0.26747005E+01  0.26590825E+01  0.26434414E+01  0.26277763E+01
  0.26120881E+01  0.25963783E+01  0.25806497E+01  0.25649064E+01  0.25491529E+01
  0.25333952E+01  0.25176397E+01  0.25018937E+01  0.24861654E+01  0.24704631E+01
  0.24547962E+01  0.24391741E+01  0.24236068E+01  0.24081045E+01  0.23926775E+01
  0.23773363E+01  0.23620914E+01  0.23469532E+01  0.23319320E+01  0.23170379E+01
  0.23022807E+01  0.22876698E+01  0.22732143E+01  0.22589225E+01  0.22448027E+01
  0.22308620E+01  0.22171074E+01  0.22035449E+01  0.21901798E+01  0.21770169E+01
  0.21640598E+01  0.21513118E+01  0.21387751E+01  0.21264511E+01  0.21143403E+01
  0.21024426E+01  0.20907570E+01  0.20792816E+01  0.20680138E+01  0.20569503E+01
  0.20460868E+01  0.20354185E+01  0.20249400E+01  0.20146451E+01  0.20045271E+01
  0.19945786E+01  0.19847920E+01  0.19751588E+01  0.19656706E+01  0.19563184E+01
  0.19470929E+01  0.19379847E+01  0.19289841E+01  0.19200813E+01  0.19112667E+01
  0.19025304E+01  0.18938626E+01  0.18852539E+01  0.18766947E+01  0.18681759E+01
  0.18596886E+01  0.18512242E+01  0.18427745E+01  0.18343317E+01  0.18258885E+01
  0.18174380E+01  0.18089739E+01  0.18004905E+01  0.17919826E+01  0.17834457E+01
  0.17748759E+01  0.17662698E+01  0.17576249E+01  0.17489391E+01  0.17402113E+01
  0.17314408E+01  0.17226276E+01  0.17137724E+01  0.17048765E+01  0.16959420E+01
  0.16869714E+01  0.16779678E+01  0.16689350E+01  0.16598772E+01  0.16507991E+01
  0.16417060E+01  0.16326034E+01  0.16234974E+01  0.16143944E+01  0.16053009E+01
  0.15962239E+01  0.15871705E+01  0.15781480E+01  0.15691639E+01  0.15602256E+01
  0.15513407E+01  0.15425166E+01  0.15337608E+01  0.15250807E+01  0.15164835E+01
  0.15079761E+01  0.14995653E+01  0.14912576E+01  0.14830592E+01  0.14749759E+01
  0.14670131E+01  0.14591760E+01  0.14514690E+01  0.14438963E+01  0.14364616E+01
  0.14291680E+01  0.14220181E+01  0.14150138E+01  0.14081568E+01  0.14014480E+01
  0.13948876E+01  0.13884756E+01  0.13822112E+01  0.13760930E+01  0.13701192E+01
  0.13642873E+01  0.13585944E+01  0.13530371E+01  0.13476115E+01  0.13423130E+01
  0.13371370E+01  0.13320781E+01  0.13271307E+01  0.13222888E+01  0.13175461E+01
  0.13128960E+01  0.13083317E+01  0.13038461E+01  0.12994319E+01  0.12950819E+01
  0.12907884E+01  0.12865441E+01  0.12823414E+01  0.12781726E+01  0.12740305E+01
  0.12699076E+01  0.12657967E+01  0.12616907E+01  0.12575829E+01  0.12534665E+01
  0.12493353E+01  0.12451834E+01  0.12410049E+01  0.12367947E+01  0.12325477E+01
  0.12282596E+01  0.12239261E+01  0.12195438E+01  0.12151095E+01  0.12106205E+01
  0.12060746E+01  0.12014701E+01  0.11968059E+01  0.11920813E+01  0.11872961E+01
  0.11824505E+01  0.11775454E+01  0.11725821E+01  0.11675623E+01  0.11624882E+01
  0.11573623E+01  0.11521879E+01  0.11469681E+01  0.11417070E+01  0.11364085E+01
  0.11310772E+01  0.11257178E+01  0.11203354E+01  0.11149351E+01  0.11095224E+01
  0.11041029E+01  0.10986824E+01  0.10932665E+01  0.10878613E+01  0.10824725E+01
  0.10771062E+01  0.10717681E+01  0.10664640E+01  0.10611995E+01  0.10559803E+01
  0.10508115E+01  0.10456984E+01  0.10406458E+01  0.10356583E+01  0.10307404E+01
  0.10258960E+01  0.10211289E+01  0.10164423E+01  0.10118394E+01  0.10073228E+01
  0.10028946E+01  0.99855663E+00  0.99431038E+00  0.99015683E+00  0.98609656E+00
  0.98212973E+00  0.97825609E+00  0.97447499E+00  0.97078537E+00  0.96718578E+00
  0.96367437E+00  0.96024895E+00  0.95690695E+00  0.95364549E+00  0.95046135E+00
  0.94735103E+00  0.94431076E+00  0.94133652E+00  0.93842405E+00  0.93556893E+00
  0.93276654E+00  0.93001213E+00  0.92730086E+00  0.92462777E+00  0.92198789E+00
  0.91937621E+00  0.91678772E+00  0.91421746E+00  0.91166053E+00  0.90911215E+00
  0.90656761E+00  0.90402239E+00  0.90147214E+00  0.89891268E+00  0.89634008E+00
  0.89375061E+00  0.89114084E+00  0.88850760E+00  0.88584799E+00  0.88315943E+00
  0.88043968E+00  0.87768677E+00  0.87489912E+00  0.87207545E+00  0.86921483E+00
  0.86631669E+00  0.86338078E+00  0.86040720E+00  0.85739638E+00  0.85434908E+00
  0.85126639E+00  0.84814969E+00  0.84500066E+00  0.84182127E+00  0.83861373E+00
  0.83538054E+00  0.83212439E+00  0.82884819E+00  0.82555504E+00  0.82224820E+00
  0.81893108E+00  0.81560721E+00  0.81228019E+00  0.80895371E+00  0.80563150E+00
  0.80231730E+00  0.79901487E+00  0.79572791E+00  0.79246009E+00  0.78921499E+00
  0.78599610E+00  0.78280678E+00  0.77965026E+00  0.77652960E+00  0.77344770E+00
  0.77040724E+00  0.76741071E+00  0.76446036E+00  0.76155821E+00  0.75870603E+00
  0.75590533E+00  0.75315736E+00  0.75046308E+00  0.74782321E+00  0.74523814E+00
  0.74270803E+00  0.74023273E+00  0.73781182E+00  0.73544463E+00  0.73313021E+00
  0.73086733E+00  0.72865457E+00  0.72649021E+00  0.72437237E+00  0.72229890E+00
  0.72026750E+00  0.71827568E+00  0.71632077E+00  0.71440000E+00  0.71251042E+00
  0.71064903E+00  0.70881270E+00  0.70699827E+00  0.70520252E+00  0.70342219E+00
  0.70165405E+00  0.69989487E+00  0.69814144E+00  0.69639064E+00  0.69463939E+00
  0.69288472E+00  0.69112378E+00  0.68935382E+00  0.68757225E+00  0.68577664E+00
  0.68396473E+00  0.68213442E+00  0.68028385E+00  0.67841132E+00  0.67651537E+00
  0.67459475E+00  0.67264844E+00  0.67067566E+00  0.66867584E+00  0.66664867E+00
  0.66459406E+00  0.66251215E+00  0.66040333E+00  0.65826820E+00  0.65610758E+00
  0.65392250E+00  0.65171421E+00  0.64948413E+00  0.64723389E+00  0.64496526E+00
  0.64268019E+00  0.64038077E+00  0.63806922E+00  0.63574786E+00  0.63341914E+00
  0.63108557E+00  0.62874972E+00  0.62641424E+00  0.62408178E+00  0.62175503E+00
  0.61943666E+00  0.61712934E+00  0.61483571E+00  0.61255834E+00  0.61029974E+00
  0.60806236E+00  0.60584853E+00  0.60366050E+00  0.60150036E+00  0.59937010E+00
  0.59727155E+00  0.59520639E+00  0.59317613E+00  0.59118212E+00  0.58922551E+00
  0.58730727E+00  0.58542821E+00  0.58358889E+00  0.58178973E+00  0.58003091E+00
  0.57831244E+00  0.57663413E+00  0.57499559E+00  0.57339623E+00  0.57183531E+00
  0.57031189E+00  0.56882485E+00  0.56737292E+00  0.56595469E+00  0.56456857E+00
  0.56321287E+00  0.56188575E+00  0.56058528E+00  0.55930942E+00  0.55805605E+00
  0.55682296E+00  0.55560791E+00  0.55440858E+00  0.55322263E+00  0.55204772E+00
  0.55088148E+00  0.54972155E+00  0.54856561E+00  0.54741136E+00  0.54625655E+00
  0.54509900E+00  0.54393659E+00  0.54276730E+00  0.54158919E+00  0.54040043E+00
  0.53919933E+00  0.53798428E+00  0.53675385E+00  0.53550671E+00  0.53424170E+00
  0.53295781E+00  0.53165417E+00  0.53033009E+00  0.52898503E+00  0.52761860E+00
  0.52623059E+00  0.52482096E+00  0.52338981E+00  0.52193740E+00  0.52046416E+00
  0.51897065E+00  0.51745760E+00  0.51592585E+00  0.51437640E+00  0.51281035E+00
  0.51122895E+00  0.50963353E+00  0.50802552E+00  0.50640646E+00  0.50477797E+00
  0.50314171E+00  0.50149944E+00  0.49985293E+00  0.49820402E+00  0.49655455E+00
  0.49490639E+00  0.49326142E+00  0.49162149E+00  0.48998844E+00  0.48836409E+00
  0.48675021E+00  0.48514852E+00  0.48356069E+00  0.48198828E+00  0.48043283E+00
  0.47889576E+00  0.47737838E+00  0.47588193E+00  0.47440753E+00  0.47295617E+00
  0.47152875E+00  0.47012603E+00  0.46874864E+00  0.46739708E+00  0.46607175E+00
  0.46477287E+00  0.46350057E+00  0.46225483E+00  0.46103551E+00  0.45984233E+00
  0.45867489E+00  0.45753267E+00  0.45641504E+00  0.45532125E+00  0.45425044E+00
  0.45320166E+00  0.45217386E+00  0.45116589E+00  0.45017656E+00  0.44920455E+00
  0.44824854E+00  0.44730709E+00  0.44637878E+00  0.44546210E+00  0.44455554E+00
  0.44365756E+00  0.44276664E+00  0.44188121E+00  0.44099976E+00  0.44012077E+00
  0.43924277E+00  0.43836429E+00  0.43748395E+00  0.43660040E+00  0.43571236E+00
  0.43481860E+00  0.43391798E+00  0.43300944E+00  0.43209201E+00  0.43116481E+00
  0.43022704E+00  0.42927802E+00  0.42831715E+00  0.42734397E+00  0.42635809E+00
  0.42535926E+00  0.42434731E+00  0.42332219E+00  0.42228396E+00  0.42123280E+00
  0.42016896E+00  0.41909283E+00  0.41800487E+00  0.41690564E+00  0.41579581E+00
  0.41467610E+00  0.41354735E+00  0.41241045E+00  0.41126636E+00  0.41011610E+00
  0.40896074E+00  0.40780142E+00  0.40663928E+00  0.40547554E+00  0.40431139E+00
  0.40314807E+00  0.40198681E+00  0.40082885E+00  0.39967542E+00  0.39852773E+00
  0.39738695E+00  0.39625425E+00  0.39513073E+00  0.39401746E+00  0.39291546E+00
  0.39182567E+00  0.39074900E+00  0.38968627E+00  0.38863821E+00  0.38760550E+00
  0.38658873E+00  0.38558840E+00  0.38460491E+00  0.38363860E+00  0.38268968E+00
  0.38175830E+00  0.38084450E+00  0.37994823E+00  0.37906934E+00  0.37820759E+00
  0.37736267E+00  0.37653417E+00  0.37572157E+00  0.37492432E+00  0.37414175E+00
  0.37337314E+00  0.37261770E+00  0.37187458E+00  0.37114286E+00  0.37042159E+00
  0.36970977E+00  0.36900635E+00  0.36831028E+00  0.36762045E+00  0.36693577E+00
  0.36625511E+00  0.36557737E+00  0.36490142E+00  0.36422618E+00  0.36355056E+00
  0.36287351E+00  0.36219400E+00  0.36151106E+00  0.36082375E+00  0.36013118E+00
  0.35943252E+00  0.35872699E+00  0.35801389E+00  0.35729258E+00  0.35656250E+00
  0.35582315E+00  0.35507412E+00  0.35431509E+00  0.35354580E+00  0.35276610E+00
  0.35197590E+00  0.35117520E+00  0.35036410E+00  0.34954276E+00  0.34871144E+00
  0.34787047E+00  0.34702026E+00  0.34616129E+00  0.34529412E+00  0.34441936E+00
  0.34353769E+00  0.34264986E+00  0.34175665E+00  0.34085890E+00  0.33995749E+00
  0.33905332E+00  0.33814735E+00  0.33724053E+00  0.33633386E+00  0.33542831E+00
  0.33452489E+00  0.33362459E+00  0.33272839E+00  0.33183727E+00  0.33095217E+00
  0.33007402E+00  0.32920372E+00  0.32834210E+00  0.32748999E+00  0.32664815E+00
  0.32581729E+00  0.32499807E+00  0.32419107E+00  0.32339683E+00  0.32261581E+00
  0.32184841E+00  0.32109494E+00  0.32035567E+00  0.31963075E+00  0.31892029E+00
  0.31822431E+00  0.31754276E+00  0.31687551E+00  0.31622236E+00  0.31558303E+00
  0.31495718E+00  0.31434441E+00  0.31374424E+00  0.31315612E+00  0.31257948E+00
  0.31201366E+00  0.31145797E+00  0.31091167E+00  0.31037399E+00  0.30984410E+00
  0.30932118E+00  0.30880435E+00  0.30829273E+00  0.30778543E+00  0.30728155E+00
  0.30678017E+00  0.30628040E+00  0.30578134E+00  0.30528211E+00  0.30478187E+00
  0.30427976E+00  0.30377500E+00  0.30326680E+00  0.30275445E+00  0.30223724E+00
  0.30171455E+00  0.30118577E+00  0.30065038E+00  0.30010789E+00  0.29955788E+00
  0.29899999E+00  0.29843393E+00  0.29785946E+00  0.29727642E+00  0.29668470E+00
  0.29608427E+00  0.29547515E+00  0.29485745E+00  0.29423131E+00  0.29359695E+00
  0.29295466E+00  0.29230476E+00  0.29164764E+00  0.29098375E+00  0.29031357E+00
  0.28963764E+00  0.28895652E+00  0.28827084E+00  0.28758123E+00  0.28688836E+00
  0.28619294E+00  0.28549567E+00  0.28479730E+00  0.28409856E+00  0.28340020E+00
  0.28270296E+00  0.28200760E+00  0.28131485E+00  0.28062543E+00  0.27994006E+00
  0.27925941E+00  0.27858414E+00  0.27791490E+00  0.27725226E+00  0.27659681E+00
  0.27594904E+00  0.27530945E+00  0.27467847E+00  0.27405648E+00  0.27344381E+00
 gradient corrections used for XC
           5
 core charge-density (partial)
  0.12174085E+01  0.12169031E+01  0.12153882E+01  0.12128674E+01  0.12093467E+01
  0.12048342E+01  0.11993408E+01  0.11928792E+01  0.11854647E+01  0.11771145E+01
  0.11678480E+01  0.11576867E+01  0.11466539E+01  0.11347749E+01  0.11220767E+01
  0.11085878E+01  0.10943386E+01  0.10793607E+01  0.10636870E+01  0.10473517E+01
  0.10303901E+01  0.10128384E+01  0.99473361E+00  0.97611360E+00  0.95701667E+00
  0.93748162E+00  0.91754758E+00  0.89725389E+00  0.87663995E+00  0.85574513E+00
  0.83460864E+00  0.81326940E+00  0.79176596E+00  0.77013635E+00  0.74841803E+00
  0.72664776E+00  0.70486149E+00  0.68309431E+00  0.66138037E+00  0.63975275E+00
  0.61824345E+00  0.59688331E+00  0.57570192E+00  0.55472762E+00  0.53398741E+00
  0.51350694E+00  0.49331047E+00  0.47342082E+00  0.45385939E+00  0.43464611E+00
  0.41579945E+00  0.39733641E+00  0.37927252E+00  0.36162185E+00  0.34439701E+00
  0.32760920E+00  0.31126817E+00  0.29538231E+00  0.27995863E+00  0.26500283E+00
  0.25051930E+00  0.23651118E+00  0.22298039E+00  0.20992769E+00  0.19735271E+00
  0.18525400E+00  0.17362909E+00  0.16247452E+00  0.15178592E+00  0.14155805E+00
  0.13178482E+00  0.12245941E+00  0.11357428E+00  0.10512123E+00  0.97091448E-01
  0.89475588E-01  0.82263798E-01  0.75445783E-01  0.69010852E-01  0.62947972E-01
  0.57245813E-01  0.51892796E-01  0.46877140E-01  0.42186905E-01  0.37810036E-01
  0.33734402E-01  0.29947837E-01  0.26438175E-01  0.23193289E-01  0.20201120E-01
  0.17449712E-01  0.14927239E-01  0.12622035E-01  0.10522617E-01  0.86177100E-02
  0.68962688E-02  0.53474970E-02  0.39608652E-02  0.27261267E-02  0.16333317E-02
  0.67283958E-03 -0.16467054E-03 -0.88819085E-03 -0.15063776E-02 -0.20275454E-02
 -0.24596630E-02 -0.28103504E-02 -0.30868776E-02 -0.32961643E-02 -0.34447812E-02
 -0.35389518E-02 -0.35845562E-02 -0.35871352E-02 -0.35518954E-02 -0.34837155E-02
 -0.33871531E-02 -0.32664523E-02 -0.31255521E-02 -0.29680948E-02 -0.27974359E-02
 -0.26166533E-02 -0.24285579E-02 -0.22357039E-02 -0.20403993E-02 -0.18447174E-02
 -0.16505073E-02 -0.14594054E-02 -0.12728466E-02 -0.10920754E-02 -0.91815732E-03
 -0.75198962E-03 -0.59431263E-03 -0.44572040E-03 -0.30667138E-03 -0.17749873E-03
 -0.58420563E-04  0.50450241E-04  0.14909646E-03  0.23758728E-03  0.31606938E-03
  0.38475838E-03  0.44393063E-03  0.49391543E-03  0.53508755E-03  0.56786023E-03
  0.59267848E-03  0.61001288E-03  0.62035367E-03  0.62420534E-03  0.62208150E-03
  0.61450025E-03  0.60197985E-03  0.58503478E-03  0.56417221E-03  0.53988878E-03
  0.51266772E-03  0.48297636E-03  0.45126388E-03  0.41795946E-03  0.38347064E-03
  0.34818204E-03  0.31245425E-03  0.27662309E-03  0.24099900E-03  0.20586674E-03
  0.17148520E-03  0.13808752E-03  0.10588127E-03  0.75048846E-04  0.45748060E-04
  0.18112756E-04 -0.77463774E-05 -0.31740914E-04 -0.53803711E-04 -0.73887847E-04
 -0.91965500E-04 -0.10802676E-03 -0.12207844E-03 -0.13414278E-03 -0.14425621E-03
 -0.15246809E-03 -0.15883938E-03 -0.16344141E-03 -0.16635461E-03 -0.16766726E-03
 -0.16747432E-03 -0.16587625E-03 -0.16297786E-03 -0.15888724E-03 -0.15371475E-03
 -0.14757202E-03 -0.14057100E-03 -0.13282317E-03 -0.12443864E-03 -0.11552549E-03
 -0.10618907E-03 -0.96531335E-04 -0.86650368E-04 -0.76639843E-04 -0.66588615E-04
 -0.56580357E-04 -0.46693252E-04 -0.36999748E-04 -0.27566371E-04 -0.18453591E-04
 -0.97157333E-05 -0.14009493E-05  0.64487722E-05  0.13797549E-04  0.20615511E-04
  0.26878661E-04  0.32568714E-04  0.37672892E-04  0.42183699E-04  0.46098669E-04
  0.49420093E-04  0.52154729E-04  0.54313490E-04  0.55911131E-04  0.56965915E-04
  0.57499282E-04  0.57535509E-04  0.57101366E-04  0.56225781E-04  0.54939504E-04
  0.53274774E-04  0.51264997E-04  0.48944433E-04  0.46347896E-04  0.43510458E-04
  0.40467180E-04  0.37252845E-04  0.33901716E-04  0.30447308E-04  0.26922176E-04
  0.23357723E-04  0.19784026E-04  0.16229682E-04  0.12721668E-04  0.92852286E-05
  0.59437722E-05  0.27187930E-05 -0.37019247E-06 -0.33056901E-05 -0.60722565E-05
 -0.86565109E-05 -0.11047131E-04 -0.13234837E-04 -0.15212354E-04 -0.16974373E-04
 -0.18517490E-04 -0.19840139E-04 -0.20942512E-04 -0.21826477E-04 -0.22495475E-04
 -0.22954428E-04 -0.23209621E-04 -0.23268600E-04 -0.23140048E-04 -0.22833668E-04
 -0.22360068E-04 -0.21730632E-04 -0.20957402E-04 -0.20052960E-04 -0.19030305E-04
 -0.17902740E-04 -0.16683758E-04 -0.15386933E-04 -0.14025814E-04 -0.12613828E-04
 -0.11164184E-04 -0.96897839E-05 -0.82031430E-05 -0.67163116E-05 -0.52408074E-05
 -0.37875539E-05 -0.23668249E-05 -0.98819724E-06  0.33948992E-06  0.16081682E-05
  0.28105662E-05  0.39402293E-05  0.49915317E-05  0.59596825E-05  0.68407255E-05
  0.76315326E-05  0.83297917E-05  0.89339892E-05  0.94433872E-05  0.98579964E-05
  0.10178544E-04  0.10406439E-04  0.10543733E-04  0.10593076E-04  0.10557677E-04
  0.10441252E-04  0.10247977E-04  0.99824392E-05  0.96495860E-05  0.92546720E-05
  0.88032089E-05  0.83009138E-05  0.77536584E-05  0.71674194E-05  0.65482296E-05
  0.59021314E-05  0.52351312E-05  0.45531563E-05  0.38620143E-05  0.31673546E-05
  0.24746327E-05  0.17890771E-05  0.11156601E-05  0.45906996E-06 -0.17631206E-06
 -0.78643280E-06 -0.13675844E-05 -0.19164187E-05 -0.24299580E-05 -0.29056034E-05
 -0.33411393E-05 -0.37347356E-05 -0.40849465E-05 -0.43907068E-05 -0.46513254E-05
 -0.48664769E-05 -0.50361895E-05 -0.51608326E-05 -0.52411008E-05 -0.52779968E-05
 -0.52728131E-05 -0.52271109E-05 -0.51426998E-05 -0.50216142E-05 -0.48660910E-05
 -0.46785452E-05 -0.44615454E-05 -0.42177899E-05 -0.39500813E-05 -0.36613025E-05
 -0.33543924E-05 -0.30323219E-05 -0.26980711E-05 -0.23546066E-05 -0.20048602E-05
 -0.16517083E-05 -0.12979526E-05 -0.94630195E-06 -0.59935559E-06 -0.25958758E-06
  0.70667085E-07  0.38922498E-06  0.69406519E-06  0.98333872E-06  0.12553763E-05
  0.15086944E-05  0.17420003E-05  0.19541949E-05  0.21443742E-05  0.23118297E-05
  0.24560469E-05  0.25767025E-05  0.26736606E-05  0.27469674E-05  0.27968446E-05
  0.28236822E-05  0.28280299E-05  0.28105878E-05  0.27721963E-05  0.27138251E-05
  0.26365621E-05  0.25416012E-05  0.24302301E-05  0.23038179E-05  0.21638021E-05
  0.20116758E-05  0.18489751E-05  0.16772660E-05  0.14981319E-05  0.13131619E-05
  0.11239378E-05  0.93202380E-06  0.73895458E-06  0.54622534E-06  0.35528186E-06
  0.16751135E-06 -0.15765958E-07 -0.19330449E-06 -0.36394022E-06 -0.52659673E-06
 -0.68029046E-06 -0.82413515E-06 -0.95734534E-06 -0.10792391E-05 -0.11892399E-05
 -0.12868776E-05 -0.13717888E-05 -0.14437161E-05 -0.15025071E-05 -0.15481119E-05
 -0.15805807E-05 -0.16000603E-05 -0.16067901E-05 -0.16010977E-05 -0.15833935E-05
 -0.15541657E-05 -0.15139738E-05 -0.14634428E-05 -0.14032565E-05 -0.13341505E-05
 -0.12569056E-05 -0.11723405E-05 -0.10813044E-05 -0.98467047E-06 -0.88332796E-06
 -0.77817566E-06 -0.67011478E-06 -0.56004225E-06 -0.44884423E-06 -0.33738982E-06
 -0.22652518E-06 -0.11706791E-06 -0.98017965E-08  0.94527970E-07  0.19521924E-06
  0.29161685E-06  0.38311617E-06  0.46916609E-06  0.54927165E-06  0.62299605E-06
  0.68996232E-06  0.74985437E-06  0.80241766E-06  0.84745935E-06  0.88484802E-06
  0.91451293E-06  0.93644288E-06  0.95068464E-06  0.95734098E-06  0.95656841E-06
  0.94857456E-06  0.93361518E-06  0.91199100E-06  0.88404428E-06  0.85015511E-06
  0.81073760E-06  0.76623591E-06  0.71712014E-06  0.66388216E-06  0.60703140E-06
  0.54709059E-06  0.48459158E-06  0.42007113E-06  0.35406682E-06  0.28711308E-06
  0.21973728E-06  0.15245605E-06  0.85771760E-07  0.20169134E-07 -0.43887829E-07
 -0.10595876E-06 -0.16562954E-06 -0.22251469E-06 -0.27625949E-06 -0.32654175E-06
 -0.37307341E-06 -0.41560172E-06 -0.45391028E-06 -0.48781960E-06 -0.51718759E-06
 -0.54190955E-06 -0.56191806E-06 -0.57718248E-06 -0.58770828E-06 -0.59353604E-06
 -0.59474028E-06 -0.59142807E-06 -0.58373737E-06 -0.57183527E-06 -0.55591603E-06
 -0.53619891E-06 -0.51292599E-06 -0.48635974E-06 -0.45678066E-06 -0.42448466E-06
 -0.38978058E-06 -0.35298752E-06 -0.31443227E-06 -0.27444670E-06 -0.23336514E-06
 -0.19152192E-06 -0.14924885E-06 -0.10687283E-06 -0.64713599E-07 -0.23081483E-07
  0.17724619E-07  0.57419189E-07  0.95731867E-07  0.13240909E-06  0.16721554E-06
  0.19993548E-06  0.23037385E-06  0.25835721E-06  0.28373452E-06  0.30637770E-06
  0.32618207E-06  0.34306651E-06  0.35697355E-06  0.36786920E-06  0.37574267E-06
  0.38060589E-06  0.38249287E-06  0.38145898E-06  0.37757997E-06  0.37095102E-06
  0.36168548E-06  0.34991370E-06  0.33578163E-06  0.31944935E-06  0.30108964E-06
  0.28088633E-06  0.25903273E-06  0.23572997E-06  0.21118535E-06  0.18561061E-06
  0.15922037E-06  0.13223036E-06  0.10485590E-06  0.77310231E-07  0.49803069E-07
  0.22539077E-07 -0.42835046E-08 -0.30474188E-07 -0.55851467E-07 -0.80243955E-07
 -0.10349142E-06 -0.12544574E-06 -0.14597168E-06 -0.16494766E-06 -0.18226630E-06
 -0.19783492E-06 -0.21157591E-06 -0.22342694E-06 -0.23334110E-06 -0.24128689E-06
 -0.24724815E-06 -0.25122379E-06 -0.25322751E-06 -0.25328734E-06 -0.25144515E-06
 -0.24775602E-06 -0.24228755E-06 -0.23511908E-06 -0.22634086E-06 -0.21605313E-06
 -0.20436520E-06 -0.19139440E-06 -0.17726506E-06 -0.16210745E-06 -0.14605668E-06
 -0.12925160E-06 -0.11183368E-06 -0.93945951E-07 -0.75731856E-07 -0.57334226E-07
 -0.38894223E-07 -0.20550330E-07 -0.24373904E-08  0.15314315E-07  0.32579932E-07
  0.49240842E-07  0.65185407E-07  0.80309647E-07  0.94517848E-07  0.10772310E-06
  0.11984773E-06  0.13082374E-06  0.14059305E-06  0.14910773E-06  0.15633018E-06
  0.16223317E-06  0.16679979E-06  0.17002345E-06  0.17190762E-06  0.17246567E-06
  0.17172053E-06  0.16970432E-06  0.16645796E-06  0.16203065E-06  0.15647936E-06
  0.14986825E-06  0.14226803E-06  0.13375534E-06  0.12441202E-06  0.11432444E-06
  0.10358274E-06  0.92280102E-07  0.80512016E-07  0.68375498E-07  0.55968359E-07
  0.43388464E-07  0.30733009E-07  0.18097815E-07  0.55766484E-08 -0.67394327E-08
 -0.18762695E-07 -0.30409314E-07 -0.41599915E-07 -0.52260072E-07 -0.62320759E-07
 -0.71718755E-07 -0.80396996E-07 -0.88304875E-07 -0.95398492E-07 -0.10164084E-06
 -0.10700196E-06 -0.11145901E-06 -0.11499628E-06 -0.11760523E-06 -0.11928432E-06
 -0.12003898E-06 -0.11988138E-06 -0.11883021E-06 -0.11691046E-06 -0.11415304E-06
 -0.11059453E-06 -0.10627672E-06 -0.10124623E-06 -0.95554109E-07 -0.89255308E-07
 -0.82408249E-07 -0.75074309E-07 -0.67317311E-07 -0.59203011E-07 -0.50798567E-07
 -0.42172027E-07 -0.33391800E-07 -0.24526151E-07 -0.15642694E-07 -0.68079071E-08
  0.19133354E-08  0.10458216E-07  0.18766398E-07  0.26780423E-07  0.34446086E-07
  0.41712771E-07  0.48533760E-07  0.54866507E-07  0.60672872E-07  0.65919326E-07
  0.70577108E-07  0.74622353E-07  0.78036177E-07  0.80804725E-07  0.82919181E-07
  0.84375744E-07  0.85175556E-07  0.85324612E-07  0.84833623E-07  0.83717851E-07
  0.81996915E-07  0.79694564E-07  0.76838430E-07  0.73459751E-07  0.69593078E-07
  0.65275956E-07  0.60548595E-07  0.55453526E-07  0.50035240E-07  0.44339832E-07
  0.38414625E-07  0.32307801E-07  0.26068031E-07  0.19744102E-07  0.13384562E-07
  0.70373565E-08  0.74949358E-09 -0.54332925E-08 -0.11466855E-07 -0.17308931E-07
 -0.22919423E-07 -0.28260658E-07 -0.33297618E-07 -0.37998156E-07 -0.42333183E-07
 -0.46276829E-07 -0.49806576E-07 -0.52903369E-07 -0.55551694E-07 -0.57739631E-07
 -0.59458880E-07 -0.60704761E-07 -0.61476182E-07 -0.61775590E-07 -0.61608886E-07
 -0.60985328E-07 -0.59917398E-07 -0.58420659E-07 -0.56513587E-07 -0.54217382E-07
 -0.51555765E-07 -0.48554761E-07 -0.45242467E-07 -0.41648808E-07 -0.37805287E-07
 -0.33744722E-07 -0.29500983E-07 -0.25108725E-07 -0.20603117E-07 -0.16019573E-07
 -0.11393488E-07 -0.67599766E-08 -0.21536159E-08  0.23917981E-08  0.68434887E-08
  0.11169923E-07  0.15341024E-07  0.19328369E-07  0.23105371E-07  0.26647446E-07
  0.29932159E-07  0.32939357E-07  0.35651277E-07  0.38052639E-07  0.40130718E-07
  0.41875396E-07  0.43279191E-07  0.44337274E-07  0.45047454E-07  0.45410158E-07
  0.45428379E-07  0.45107614E-07  0.44455784E-07  0.43483134E-07  0.42202117E-07
  0.40627272E-07  0.38775077E-07  0.36663797E-07  0.34313322E-07  0.31744991E-07
  0.28981414E-07  0.26046281E-07  0.22964171E-07  0.19760355E-07  0.16460603E-07
  0.13090976E-07  0.96776377E-08  0.62466562E-08  0.28238118E-08 -0.56558745E-09
 -0.38968857E-08 -0.71462510E-08 -0.10290838E-07 -0.13308941E-07 -0.16180138E-07
 -0.18885418E-07 -0.21407300E-07 -0.23729942E-07 -0.25839226E-07 -0.27722838E-07
 -0.29370332E-07 -0.30773176E-07 -0.31924782E-07 -0.32820531E-07 -0.33457770E-07
 -0.33835805E-07 -0.33955872E-07 -0.33821099E-07 -0.33436455E-07 -0.32808682E-07
 -0.31946219E-07 -0.30859114E-07 -0.29558922E-07 -0.28058599E-07 -0.26372382E-07
 -0.24515667E-07 -0.22504875E-07 -0.20357315E-07 -0.18091044E-07 -0.15724720E-07
 -0.13277457E-07 -0.10768673E-07 -0.82179471E-08 -0.56448686E-08 -0.30688930E-08
 -0.50920038E-09  0.20154419E-08  0.44868121E-08  0.68873600E-08  0.92003266E-08
  0.11409856E-07  0.13501099E-07  0.15460307E-07  0.17274918E-07  0.18933629E-07
  0.20426466E-07  0.21744830E-07  0.22881547E-07  0.23830895E-07  0.24588626E-07
  0.25151976E-07  0.25519663E-07  0.25691871E-07  0.25670233E-07  0.25457793E-07
  0.25058960E-07  0.24479464E-07  0.23726284E-07  0.22807584E-07  0.21732634E-07
  0.20511723E-07  0.19156071E-07  0.17677730E-07  0.16089482E-07  0.14404738E-07
  0.12637425E-07  0.10801878E-07  0.89127260E-08  0.69847822E-08  0.50329304E-08
  0.30720137E-08  0.11167261E-08 -0.81849444E-09 -0.27195686E-08 -0.45728748E-08
 -0.63653431E-08 -0.80845438E-08 -0.97187701E-08 -0.11257114E-07 -0.12689535E-07
 -0.14006923E-07 -0.15201151E-07 -0.16265122E-07 -0.17192805E-07 -0.17979265E-07
 -0.18620686E-07 -0.19114379E-07 -0.19458789E-07 -0.19653489E-07 -0.19699167E-07
 -0.19597605E-07 -0.19351650E-07 -0.18965180E-07 -0.18443057E-07 -0.17791079E-07
 -0.17015925E-07 -0.16125090E-07 -0.15126821E-07 -0.14030046E-07 -0.12844294E-07
 -0.11579621E-07 -0.10246524E-07 -0.88558603E-08 -0.74187623E-08 -0.59465487E-08
 -0.44506403E-08 -0.29424736E-08 -0.14334161E-08  0.65316961E-10  0.15427430E-08
  0.29881905E-08  0.43913730E-08  0.57424603E-08  0.70321443E-08  0.82517010E-08
  0.93930467E-08  0.10448789E-07  0.11412271E-07  0.12277611E-07  0.13039738E-07
  0.13694411E-07  0.14238248E-07  0.14668729E-07  0.14984214E-07  0.15183934E-07
  0.15267988E-07  0.15237331E-07  0.15093756E-07  0.14839865E-07  0.14479044E-07
  0.14015425E-07  0.13453844E-07  0.12799798E-07  0.12059394E-07  0.11239295E-07
  0.10346665E-07  0.93891100E-08  0.83746111E-08  0.73114654E-08  0.62082181E-08
  0.50735967E-08  0.39164434E-08  0.27456487E-08  0.15700850E-08  0.39854107E-09
 -0.76034183E-09 -0.18981316E-08 -0.30066650E-08 -0.40781044E-08 -0.51049914E-08
 -0.60802968E-08 -0.69974669E-08 -0.78504657E-08 -0.86338126E-08 -0.93426153E-08
 -0.99725988E-08 -0.10520128E-07 -0.10982227E-07 -0.11356591E-07 -0.11641597E-07
 -0.11836304E-07 -0.11940452E-07 -0.11954457E-07 -0.11879394E-07 -0.11716987E-07
 -0.11469583E-07 -0.11140126E-07 -0.10732133E-07 -0.10249654E-07 -0.96972386E-08
 -0.90798958E-08 -0.84030497E-08 -0.76724949E-08 -0.68943485E-08 -0.60750010E-08
 -0.52210650E-08 -0.43393240E-08 -0.34366796E-08 -0.25200994E-08 -0.15965642E-08
 -0.67301634E-09  0.24369092E-09  0.11468431E-08  0.20299125E-08  0.28866035E-08
  0.37108968E-08  0.44970902E-08  0.52398362E-08  0.59341776E-08  0.65755790E-08
  0.71599549E-08  0.76836940E-08  0.81436801E-08  0.85373089E-08  0.88625005E-08
  0.91177082E-08  0.93019233E-08  0.94146756E-08  0.94560303E-08  0.94265804E-08
  0.93274359E-08  0.91602089E-08  0.89269957E-08  0.86303548E-08  0.82732822E-08
  0.78591843E-08  0.73918469E-08  0.68754027E-08  0.63142966E-08  0.57132487E-08
  0.50772158E-08  0.44113525E-08  0.37209696E-08  0.30114940E-08  0.22884260E-08
  0.15572989E-08  0.82363647E-09  0.92913291E-10 -0.62948577E-09 -0.13383040E-08
 -0.20284503E-08 -0.26950346E-08 -0.33334014E-08 -0.39391619E-08 -0.45082223E-08
 -0.50368114E-08 -0.55215037E-08 -0.59592408E-08 -0.63473496E-08 -0.66835575E-08
 -0.69660035E-08 -0.71932481E-08 -0.73642778E-08 -0.74785080E-08 -0.75357817E-08
 -0.75363657E-08 -0.74809436E-08 -0.73706053E-08 -0.72068342E-08 -0.69914915E-08
 -0.67267979E-08 -0.64153126E-08 -0.60599107E-08 -0.56637575E-08 -0.52302823E-08
 -0.47631494E-08 -0.42662283E-08 -0.37435626E-08 -0.31993380E-08 -0.26378498E-08
 kinetic energy density (partial)
  0.13123585E+03  0.13118216E+03  0.13102121E+03  0.13075339E+03  0.13037931E+03
  0.12989984E+03  0.12931608E+03  0.12862938E+03  0.12784131E+03  0.12695369E+03
  0.12596852E+03  0.12488805E+03  0.12371472E+03  0.12245116E+03  0.12110018E+03
  0.11966478E+03  0.11814811E+03  0.11655349E+03  0.11488436E+03  0.11314430E+03
  0.11133701E+03  0.10946627E+03  0.10753599E+03  0.10555012E+03  0.10351269E+03
  0.10142778E+03  0.99299510E+02  0.97132025E+02  0.94929478E+02  0.92696023E+02
  0.90435802E+02  0.88152934E+02  0.85851497E+02  0.83535527E+02  0.81208997E+02
  0.78875814E+02  0.76539805E+02  0.74204710E+02  0.71874172E+02  0.69551729E+02
  0.67240807E+02  0.64944714E+02  0.62666629E+02  0.60409603E+02  0.58176550E+02
  0.55970242E+02  0.53793309E+02  0.51648230E+02  0.49537337E+02  0.47462807E+02
  0.45426667E+02  0.43430787E+02  0.41476883E+02  0.39566518E+02  0.37701101E+02
  0.35881890E+02  0.34109991E+02  0.32386364E+02  0.30711824E+02  0.29087043E+02
  0.27512556E+02  0.25988761E+02  0.24515928E+02  0.23094198E+02  0.21723593E+02
  0.20404017E+02  0.19135262E+02  0.17917014E+02  0.16748857E+02  0.15630281E+02
  0.14560685E+02  0.13539383E+02  0.12565611E+02  0.11638532E+02  0.10757240E+02
  0.99207684E+01  0.91280945E+01  0.83781445E+01  0.76697993E+01  0.70019000E+01
  0.63732529E+01  0.57826348E+01  0.52287977E+01  0.47104740E+01  0.42263808E+01
  0.37752244E+01  0.33557047E+01  0.29665192E+01  0.26063671E+01  0.22739525E+01
  0.19679887E+01  0.16872006E+01  0.14303285E+01  0.11961305E+01  0.98338538E+00
  0.79089511E+00  0.61748689E+00  0.46201539E+00  0.32336446E+00  0.20044885E+00
  0.92215661E-01 -0.23544453E-02 -0.84246117E-01 -0.15440843E+00 -0.21375415E+00
 -0.26315918E+00 -0.30346214E+00 -0.33546412E+00 -0.35992857E+00 -0.37758131E+00
 -0.38911072E+00 -0.39516798E+00 -0.39636747E+00 -0.39328729E+00 -0.38646982E+00
 -0.37642243E+00 -0.36361822E+00 -0.34849692E+00 -0.33146572E+00 -0.31290030E+00
 -0.29314584E+00 -0.27251809E+00 -0.25130446E+00 -0.22976519E+00 -0.20813451E+00
 -0.18662181E+00 -0.16541287E+00 -0.14467107E+00 -0.12453857E+00 -0.10513757E+00
 -0.86571500E-01 -0.68926207E-01 -0.52271152E-01 -0.36660568E-01 -0.22134603E-01
 -0.87204359E-02  0.35666333E-02  0.14722129E-01  0.24751374E-01  0.33668504E-01
  0.41495513E-01  0.48261346E-01  0.54001022E-01  0.58754810E-01  0.62567433E-01
  0.65487333E-01  0.67565957E-01  0.68857108E-01  0.69416323E-01  0.69300303E-01
  0.68566382E-01  0.67272040E-01  0.65474457E-01  0.63230103E-01  0.60594378E-01
  0.57621278E-01  0.54363107E-01  0.50870223E-01  0.47190817E-01  0.43370725E-01
  0.39453272E-01  0.35479151E-01  0.31486321E-01  0.27509937E-01  0.23582311E-01
  0.19732881E-01  0.15988219E-01  0.12372049E-01  0.89052833E-02  0.56060798E-02
  0.24899134E-02 -0.43034115E-03 -0.31443125E-02 -0.56440260E-02 -0.79237884E-02
 -0.99800639E-02 -0.11811345E-01 -0.13418017E-01 -0.14802223E-01 -0.15967717E-01
 -0.16919727E-01 -0.17664812E-01 -0.18210716E-01 -0.18566231E-01 -0.18741057E-01
 -0.18745667E-01 -0.18591178E-01 -0.18289220E-01 -0.17851815E-01 -0.17291261E-01
 -0.16620022E-01 -0.15850622E-01 -0.14995546E-01 -0.14067151E-01 -0.13077579E-01
 -0.12038679E-01 -0.10961941E-01 -0.98584286E-02 -0.87387223E-02 -0.76128735E-02
 -0.64903599E-02 -0.53800510E-02 -0.42901784E-02 -0.32283142E-02 -0.22013537E-02
 -0.12155055E-02 -0.27628615E-03  0.61147921E-03  0.14436518E-02  0.22167691E-02
  0.29280308E-02  0.35752807E-02  0.41569848E-02  0.46722069E-02  0.51205801E-02
  0.55022772E-02  0.58179784E-02  0.60688365E-02  0.62564418E-02  0.63827853E-02
  0.64502210E-02  0.64614282E-02  0.64193728E-02  0.63272695E-02  0.61885436E-02
  0.60067944E-02  0.57857578E-02  0.55292718E-02  0.52412415E-02  0.49256067E-02
  0.45863104E-02  0.42272692E-02  0.38523452E-02  0.34653204E-02  0.30698721E-02
  0.26695516E-02  0.22677636E-02  0.18677487E-02  0.14725679E-02  0.10850883E-02
  0.70797256E-03  0.34366871E-03 -0.55967903E-05 -0.33782459E-03 -0.65124586E-03
 -0.94432394E-03 -0.12157542E-02 -0.14644621E-02 -0.16896000E-02 -0.18905421E-02
 -0.20668783E-02 -0.22184065E-02 -0.23451242E-02 -0.24472187E-02 -0.25250566E-02
 -0.25791723E-02 -0.26102559E-02 -0.26191409E-02 -0.26067910E-02 -0.25742867E-02
 -0.25228117E-02 -0.24536393E-02 -0.23681188E-02 -0.22676619E-02 -0.21537288E-02
 -0.20278159E-02 -0.18914422E-02 -0.17461376E-02 -0.15934304E-02 -0.14348366E-02
 -0.12718485E-02 -0.11059252E-02 -0.93848312E-03 -0.77088712E-03 -0.60444289E-03
 -0.44038973E-03 -0.27989437E-03 -0.12404539E-03  0.26151383E-04  0.16977675E-03
  0.30600120E-03  0.43408719E-03  0.55339062E-03  0.66336161E-03  0.76354454E-03
  0.85357741E-03  0.93319048E-03  0.10022044E-02  0.10605278E-02  0.11081540E-02
  0.11451577E-02  0.11716910E-02  0.11879789E-02  0.11943150E-02  0.11910556E-02
  0.11786156E-02  0.11574621E-02  0.11281091E-02  0.10911119E-02  0.10470611E-02
  0.99657680E-03  0.94030284E-03  0.87890110E-03  0.81304576E-03  0.74341787E-03
  0.67069999E-03  0.59557104E-03  0.51870146E-03  0.44074850E-03  0.36235189E-03
  0.28412979E-03  0.20667501E-03  0.13055162E-03  0.56291874E-04 -0.15606509E-04
 -0.84682714E-04 -0.15051482E-03 -0.21272144E-03 -0.27096303E-03 -0.32494276E-03
 -0.37440716E-03 -0.41914629E-03 -0.45899372E-03 -0.49382608E-03 -0.52356240E-03
 -0.54816308E-03 -0.56762869E-03 -0.58199844E-03 -0.59134846E-03 -0.59578990E-03
 -0.59546679E-03 -0.59055377E-03 -0.58125368E-03 -0.56779502E-03 -0.55042933E-03
 -0.52942850E-03 -0.50508199E-03 -0.47769407E-03 -0.44758103E-03 -0.41506839E-03
 -0.38048819E-03 -0.34417625E-03 -0.30646959E-03 -0.26770385E-03 -0.22821089E-03
 -0.18831641E-03 -0.14833781E-03 -0.10858208E-03 -0.69343916E-04 -0.30903945E-04
  0.64728593E-05  0.42538604E-04  0.77063724E-04  0.10983806E-03  0.14067173E-03
  0.16939589E-03  0.19586322E-03  0.21994831E-03  0.24154786E-03  0.26058066E-03
  0.27698749E-03  0.29073081E-03  0.30179428E-03  0.31018223E-03  0.31591889E-03
  0.31904759E-03  0.31962978E-03  0.31774397E-03  0.31348464E-03  0.30696094E-03
  0.29829547E-03  0.28762289E-03  0.27508854E-03  0.26084703E-03  0.24506078E-03
  0.22789857E-03  0.20953409E-03  0.19014449E-03  0.16990897E-03  0.14900734E-03
  0.12761874E-03  0.10592029E-03  0.84085846E-04  0.62284825E-04  0.40681085E-04
  0.19431888E-04 -0.13130604E-05 -0.21412480E-04 -0.40734304E-04 -0.59156365E-04
 -0.76566998E-04 -0.92865542E-04 -0.10796274E-03 -0.12178106E-03 -0.13425490E-03
 -0.14533070E-03 -0.15496702E-03 -0.16313439E-03 -0.16981526E-03 -0.17500369E-03
 -0.17870511E-03 -0.18093589E-03 -0.18172289E-03 -0.18110300E-03 -0.17912248E-03
 -0.17583644E-03 -0.17130808E-03 -0.16560803E-03 -0.15881359E-03 -0.15100798E-03
 -0.14227953E-03 -0.13272087E-03 -0.12242815E-03 -0.11150019E-03 -0.10003769E-03
 -0.88142451E-04 -0.75916530E-04 -0.63461532E-04 -0.50877851E-04 -0.38263960E-04
 -0.25715740E-04 -0.13325848E-04 -0.11831180E-05  0.10627983E-04  0.22027859E-04
  0.32942233E-04  0.43302547E-04  0.53046309E-04  0.62117383E-04  0.70466226E-04
  0.78050069E-04  0.84833045E-04  0.90786261E-04  0.95887818E-04  0.10012278E-03
  0.10348308E-03  0.10596742E-03  0.10758105E-03  0.10833558E-03  0.10824873E-03
  0.10734398E-03  0.10565030E-03  0.10320175E-03  0.10003708E-03  0.96199350E-04
  0.91735482E-04  0.86695793E-04  0.81133547E-04  0.75104477E-04  0.68666305E-04
  0.61878265E-04  0.54800623E-04  0.47494202E-04  0.40019920E-04  0.32438333E-04
  0.24809202E-04  0.17191068E-04  0.96408511E-05  0.22134750E-05 -0.50384898E-05
 -0.12065152E-04 -0.18819597E-04 -0.25258161E-04 -0.31340663E-04 -0.37030617E-04
 -0.42295403E-04 -0.47106409E-04 -0.51439140E-04 -0.55273293E-04 -0.58592798E-04
 -0.61385830E-04 -0.63644788E-04 -0.65366244E-04 -0.66550857E-04 -0.67203273E-04
 -0.67331982E-04 -0.66949160E-04 -0.66070490E-04 -0.64714950E-04 -0.62904599E-04
 -0.60664327E-04 -0.58021607E-04 -0.55006225E-04 -0.51650002E-04 -0.47986507E-04
 -0.44050768E-04 -0.39878975E-04 -0.35508183E-04 -0.30976017E-04 -0.26320383E-04
 -0.21579175E-04 -0.16790001E-04 -0.11989906E-04 -0.72151160E-05 -0.25007903E-05
  0.21192158E-05  0.66125672E-05  0.10948652E-04  0.15098767E-04  0.19036282E-04
  0.22736788E-04  0.26178226E-04  0.29340989E-04  0.32208015E-04  0.34764846E-04
  0.36999677E-04  0.38903378E-04  0.40469500E-04  0.41694256E-04  0.42576492E-04
  0.43117625E-04  0.43321579E-04  0.43194695E-04  0.42745625E-04  0.41985218E-04
  0.40926385E-04  0.39583957E-04  0.37974532E-04  0.36116307E-04  0.34028913E-04
  0.31733229E-04  0.29251204E-04  0.26605671E-04  0.23820151E-04  0.20918671E-04
  0.17925572E-04  0.14865318E-04  0.11762320E-04  0.86407504E-05  0.55243707E-05
  0.24363678E-05 -0.60080661E-06 -0.35655847E-05 -0.64374222E-05 -0.91969273E-05
 -0.11825978E-04 -0.14307827E-04 -0.16627197E-04 -0.18770358E-04 -0.20725195E-04
 -0.22481263E-04 -0.24029826E-04 -0.25363883E-04 -0.26478183E-04 -0.27369226E-04
 -0.28035244E-04 -0.28476186E-04 -0.28693670E-04 -0.28690944E-04 -0.28472819E-04
 -0.28045603E-04 -0.27417021E-04 -0.26596127E-04 -0.25593207E-04 -0.24419678E-04
 -0.23087980E-04 -0.21611456E-04 -0.20004243E-04 -0.18281141E-04 -0.16457498E-04
 -0.14549077E-04 -0.12571937E-04 -0.10542302E-04 -0.84764446E-05 -0.63905572E-05
 -0.43006393E-05 -0.22223809E-05 -0.17105381E-06  0.18385925E-05  0.37924292E-05
  0.56770388E-05  0.74798003E-05  0.91889648E-05  0.10793725E-04  0.12284274E-04
  0.13651860E-04  0.14888824E-04  0.15988637E-04  0.16945927E-04  0.17756489E-04
  0.18417295E-04  0.18926494E-04  0.19283396E-04  0.19488461E-04  0.19543262E-04
  0.19450461E-04  0.19213758E-04  0.18837848E-04  0.18328365E-04  0.17691818E-04
  0.16935531E-04  0.16067564E-04  0.15096649E-04  0.14032101E-04  0.12883745E-04
  0.11661831E-04  0.10376947E-04  0.90399387E-05  0.76618189E-05  0.62536873E-05
  0.48266438E-05  0.33917078E-05  0.19597379E-05  0.54135476E-06 -0.85313249E-06
 -0.22137964E-05 -0.35311569E-05 -0.47962427E-05 -0.60006475E-05 -0.71365808E-05
 -0.81969137E-05 -0.91752183E-05 -0.10065802E-04 -0.10863734E-04 -0.11564868E-04
 -0.12165857E-04 -0.12664164E-04 -0.13058061E-04 -0.13346631E-04 -0.13529755E-04
 -0.13608100E-04 -0.13583098E-04 -0.13456921E-04 -0.13232449E-04 -0.12913237E-04
 -0.12503475E-04 -0.12007947E-04 -0.11431979E-04 -0.10781394E-04 -0.10062458E-04
 -0.92818251E-05 -0.84464814E-05 -0.75636860E-05 -0.66409132E-05 -0.56857925E-05
 -0.47060499E-05 -0.37094482E-05 -0.27037296E-05 -0.16965585E-05 -0.69546632E-06
  0.29220149E-06  0.12593365E-05  0.21991155E-05  0.31050451E-05  0.39710042E-05
  0.47912819E-05  0.55606123E-05  0.62742052E-05  0.69277724E-05  0.75175505E-05
  0.80403188E-05  0.84934132E-05  0.88747354E-05  0.91827585E-05  0.94165273E-05
  0.95756552E-05  0.96603165E-05  0.96712349E-05  0.96096682E-05  0.94773892E-05
  0.92766630E-05  0.90102220E-05  0.86812363E-05  0.82932830E-05  0.78503124E-05
  0.73566115E-05  0.68167668E-05  0.62356248E-05  0.56182516E-05  0.49698910E-05
  0.42959236E-05  0.36018232E-05  0.28931161E-05  0.21753380E-05  0.14539939E-05
  0.73451747E-06  0.22232119E-07 -0.67768618E-06 -0.13602447E-05 -0.20206676E-05
 -0.26544273E-05 -0.32572739E-05 -0.38252611E-05 -0.43547709E-05 -0.48425338E-05
 -0.52856473E-05 -0.56815906E-05 -0.60282372E-05 -0.63238629E-05 -0.65671523E-05
 -0.67572008E-05 -0.68935147E-05 -0.69760073E-05 -0.70049926E-05 -0.69811763E-05
 -0.69056435E-05 -0.67798441E-05 -0.66055763E-05 -0.63849666E-05 -0.61204491E-05
 -0.58147418E-05 -0.54708219E-05 -0.50918990E-05 -0.46813879E-05 -0.42428795E-05
 -0.37801113E-05 -0.32969376E-05 -0.27972983E-05 -0.22851891E-05 -0.17646307E-05
 -0.12396385E-05 -0.71419315E-06 -0.19221172E-06  0.32248018E-06  0.82617522E-06
  0.13153097E-05  0.17864877E-05  0.22365028E-05  0.26623596E-05  0.30612913E-05
  0.34307770E-05  0.37685561E-05  0.40726406E-05  0.43413254E-05  0.45731960E-05
  0.47671344E-05  0.49223224E-05  0.50382426E-05  0.51146773E-05  0.51517053E-05
  0.51496962E-05  0.51093033E-05  0.50314535E-05  0.49173367E-05  0.47683921E-05
  0.45862939E-05  0.43729346E-05  0.41304082E-05  0.38609908E-05  0.35671208E-05
  0.32513789E-05  0.29164660E-05  0.25651816E-05  0.22004015E-05  0.18250553E-05
  0.14421039E-05  0.10545169E-05  0.66525086E-06  0.27722726E-06 -0.10668821E-06
 -0.48370616E-06 -0.85113279E-06 -0.12063884E-05 -0.15470244E-05 -0.18707397E-05
 -0.21753950E-05 -0.24590265E-05 -0.27198570E-05 -0.29563067E-05 -0.31670013E-05
 -0.33507795E-05 -0.35066974E-05 -0.36340327E-05 -0.37322866E-05 -0.38011833E-05
 -0.38406694E-05 -0.38509102E-05 -0.38322852E-05 -0.37853821E-05 -0.37109892E-05
 -0.36100861E-05 -0.34838341E-05 -0.33335641E-05 -0.31607647E-05 -0.29670682E-05
 -0.27542370E-05 -0.25241479E-05 -0.22787768E-05 -0.20201824E-05 -0.17504900E-05
 -0.14718744E-05 -0.11865432E-05 -0.89671990E-06 -0.60462754E-06 -0.31247182E-06
 -0.22425349E-07  0.26338805E-06  0.54290824E-06  0.81415304E-06  0.10752317E-05
  0.13243576E-05  0.15598597E-05  0.17801931E-05  0.19839489E-05  0.21698624E-05
  0.23368199E-05  0.24838653E-05  0.26102043E-05  0.27152082E-05  0.27984157E-05
  0.28595341E-05  0.28984389E-05  0.29151719E-05  0.29099388E-05  0.28831052E-05
  0.28351911E-05  0.27668654E-05  0.26789380E-05  0.25723523E-05  0.24481762E-05
  0.23075919E-05  0.21518861E-05  0.19824383E-05  0.18007098E-05  0.16082313E-05
  0.14065907E-05  0.11974207E-05  0.98238557E-06  0.76316893E-06  0.54146070E-06
  0.31894458E-06  0.97285711E-07 -0.12188137E-06 -0.33696440E-06 -0.54642452E-06
 -0.74878689E-06 -0.94265067E-06 -0.11266983E-05 -0.12997041E-05 -0.14605418E-05
 -0.16081917E-05 -0.17417465E-05 -0.18604165E-05 -0.19635336E-05 -0.20505546E-05
 -0.21210635E-05 -0.21747725E-05 -0.22115226E-05 -0.22312826E-05 -0.22341478E-05
 -0.22203375E-05 -0.21901911E-05 -0.21441647E-05 -0.20828253E-05 -0.20068454E-05
 -0.19169968E-05 -0.18141428E-05 -0.16992310E-05 -0.15732851E-05 -0.14373960E-05
 -0.12927131E-05 -0.11404346E-05 -0.98179828E-06 -0.81807168E-06 -0.65054225E-06
 -0.48050761E-06 -0.30926578E-06 -0.13810561E-06  0.31702657E-07  0.19891650E-06
  0.36232994E-06  0.52078193E-06  0.67316433E-06  0.81842937E-06  0.95559653E-06
  0.10837589E-05  0.12020889E-05  0.13098432E-05  0.14063671E-05  0.14910982E-05
  0.15635692E-05  0.16234102E-05  0.16703498E-05  0.17042161E-05  0.17249364E-05
  0.17325364E-05  0.17271388E-05  0.17089608E-05  0.16783114E-05  0.16355880E-05
  0.15812719E-05  0.15159237E-05  0.14401784E-05  0.13547393E-05  0.12603719E-05
  0.11578978E-05  0.10481873E-05  0.93215275E-06  0.81074104E-06  0.68492612E-06
  0.55570147E-06  0.42407252E-06  0.29104899E-06  0.15763740E-06  0.24833686E-07
 -0.10638408E-06 -0.23506262E-06 -0.36028023E-06 -0.48115313E-06 -0.59684152E-06
 -0.70655519E-06 -0.80955872E-06 -0.90517618E-06 -0.99279534E-06 -0.10718714E-05
 -0.11419299E-05 -0.12025698E-05 -0.12534650E-05 -0.12943657E-05 -0.13250998E-05
 -0.13455727E-05 -0.13557669E-05 -0.13557417E-05 -0.13456309E-05 -0.13256417E-05
 -0.12960514E-05 -0.12572053E-05 -0.12095123E-05 -0.11534419E-05 -0.10895193E-05
 -0.10183213E-05 -0.94047088E-06 -0.85663241E-06 -0.76750593E-06 -0.67382160E-06
 -0.57633393E-06 -0.47581584E-06 -0.37305274E-06 -0.26883651E-06 -0.16395962E-06
 -0.59209231E-07  0.44638578E-07  0.14682438E-06  0.24661080E-06  0.34328771E-06
  0.43617713E-06  0.52463781E-06  0.60806951E-06  0.68591694E-06  0.75767325E-06
  0.82288322E-06  0.88114590E-06  0.93211694E-06  0.97551040E-06  0.10111001E-05
  0.10387206E-05  0.10582676E-05  0.10696979E-05  0.10730291E-05  0.10683384E-05
  0.10557616E-05  0.10354914E-05  0.10077748E-05  0.97291095E-06  0.93124833E-06
  0.88318133E-06  0.82914690E-06  0.76962070E-06  0.70511320E-06  0.63616535E-06
  0.56334431E-06  0.48723883E-06  0.40845471E-06  0.32761002E-06  0.24533046E-06
  0.16224459E-06  0.78979132E-07 -0.38455945E-08 -0.85620228E-07 -0.16575071E-06
 -0.24366252E-06 -0.31880463E-06 -0.39065335E-06 -0.45871584E-06 -0.52253338E-06
 -0.58168431E-06 -0.63578677E-06 -0.68450096E-06 -0.72753117E-06 -0.76462745E-06
 -0.79558686E-06 -0.82025440E-06 -0.83852362E-06 -0.85033674E-06 -0.85568456E-06
 -0.85460588E-06 -0.84718665E-06 -0.83355877E-06 -0.81389855E-06 -0.78842486E-06
 -0.75739700E-06 -0.72111230E-06 -0.67990345E-06 -0.63413561E-06 -0.58420334E-06
 -0.53052730E-06 -0.47355083E-06 -0.41373641E-06 -0.35156200E-06 -0.28751730E-06
 atomic pseudo charge-density
  0.10000000E+02  0.99915444E+01  0.99662874E+01  0.99245544E+01  0.98668744E+01
  0.97939613E+01  0.97066886E+01  0.96060605E+01  0.94931809E+01  0.93692204E+01
  0.92353855E+01  0.90928894E+01  0.89429258E+01  0.87866474E+01  0.86251485E+01
  0.84594511E+01  0.82904969E+01  0.81191413E+01  0.79461522E+01  0.77722105E+01
  0.75979132E+01  0.74237781E+01  0.72502499E+01  0.70777059E+01  0.69064635E+01
  0.67367863E+01  0.65688912E+01  0.64029542E+01  0.62391162E+01  0.60774886E+01
  0.59181572E+01  0.57611871E+01  0.56066258E+01  0.54545066E+01  0.53048510E+01
  0.51576714E+01  0.50129725E+01  0.48707533E+01  0.47310079E+01  0.45937275E+01
  0.44589004E+01  0.43265129E+01  0.41965504E+01  0.40689971E+01  0.39438369E+01
  0.38210534E+01  0.37006303E+01  0.35825512E+01  0.34668001E+01  0.33533610E+01
  0.32422183E+01  0.31333568E+01  0.30267614E+01  0.29224172E+01  0.28203096E+01
  0.27204239E+01  0.26227457E+01  0.25272605E+01  0.24339538E+01  0.23428109E+01
  0.22538171E+01  0.21669572E+01  0.20822160E+01  0.19995778E+01  0.19190267E+01
  0.18405461E+01  0.17641193E+01  0.16897288E+01  0.16173567E+01  0.15469847E+01
  0.14785937E+01  0.14121642E+01  0.13476759E+01  0.12851081E+01  0.12244394E+01
  0.11656476E+01  0.11087103E+01  0.10536039E+01  0.10003047E+01  0.94878810E+00
  0.89902889E+00  0.85100132E+00  0.80467905E+00  0.76003512E+00  0.71704204E+00
  0.67567175E+00  0.63589567E+00  0.59768471E+00  0.56100929E+00  0.52583938E+00
  0.49214449E+00  0.45989372E+00  0.42905581E+00  0.39959912E+00  0.37149168E+00
  0.34470123E+00  0.31919524E+00  0.29494095E+00  0.27190540E+00  0.25005545E+00
  0.22935784E+00  0.20977920E+00  0.19128611E+00  0.17384510E+00  0.15742274E+00
  0.14198560E+00  0.12750038E+00  0.11393384E+00  0.10125295E+00  0.89424823E-01
  0.78416814E-01  0.68196532E-01  0.58731879E-01  0.49991085E-01  0.41942740E-01
  0.34555824E-01  0.27799746E-01  0.21644367E-01  0.16060037E-01  0.11017618E-01
  0.64885158E-02  0.24447051E-02 -0.11412457E-02 -0.42961496E-02 -0.70461793E-02
 -0.94168454E-02 -0.11432977E-01 -0.13118705E-01 -0.14497444E-01 -0.15591876E-01
 -0.16423943E-01 -0.17014829E-01 -0.17384955E-01 -0.17553967E-01 -0.17540734E-01
 -0.17363338E-01 -0.17039078E-01 -0.16584460E-01 -0.16015206E-01 -0.15346251E-01
 -0.14591748E-01 -0.13765073E-01 -0.12878831E-01 -0.11944869E-01 -0.10974278E-01
 -0.99774110E-02 -0.89638932E-02 -0.79426351E-02 -0.69218489E-02 -0.59090643E-02
 -0.49111458E-02 -0.39343118E-02 -0.29841536E-02 -0.20656556E-02 -0.11832169E-02
 -0.34067280E-03  0.45868259E-03  0.12120732E-02  0.19172174E-02  0.25723041E-02
  0.31759687E-02  0.37272680E-02  0.42256558E-02  0.46709584E-02  0.50633493E-02
  0.54033249E-02  0.56916796E-02  0.59294819E-02  0.61180498E-02  0.62589277E-02
  0.63538627E-02  0.64047820E-02  0.64137706E-02  0.63830496E-02  0.63149556E-02
  0.62119196E-02  0.60764485E-02  0.59111052E-02  0.57184915E-02  0.55012307E-02
  0.52619511E-02  0.50032710E-02  0.47277843E-02  0.44380465E-02  0.41365628E-02
  0.38257762E-02  0.35080569E-02  0.31856926E-02  0.28608797E-02  0.25357159E-02
  0.22121928E-02  0.18921905E-02  0.15774723E-02  0.12696806E-02  0.97033392E-03
  0.68082397E-03  0.40241445E-03  0.13624002E-03 -0.11669374E-03 -0.35550977E-03
 -0.57945821E-03 -0.78791454E-03 -0.98037701E-03 -0.11564636E-02 -0.13159086E-02
 -0.14585582E-02 -0.15843665E-02 -0.16933902E-02 -0.17857838E-02 -0.18617937E-02
 -0.19217528E-02 -0.19660744E-02 -0.19952460E-02 -0.20098231E-02 -0.20104227E-02
 -0.19977172E-02 -0.19724273E-02 -0.19353165E-02 -0.18871837E-02 -0.18288576E-02
 -0.17611905E-02 -0.16850516E-02 -0.16013219E-02 -0.15108881E-02 -0.14146372E-02
 -0.13134511E-02 -0.12082021E-02 -0.10997475E-02 -0.98892578E-03 -0.87655220E-03
 -0.76341499E-03 -0.65027188E-03 -0.53784696E-03 -0.42682778E-03 -0.31786287E-03
 -0.21155955E-03 -0.10848206E-03 -0.91500589E-05  0.85962609E-04  0.17642878E-03
  0.26186854E-03  0.34194956E-03  0.41638702E-03  0.48494337E-03  0.54742777E-03
  0.60369528E-03  0.65364583E-03  0.69722297E-03  0.73441240E-03  0.76524030E-03
  0.78977155E-03  0.80810771E-03  0.82038494E-03  0.82677173E-03  0.82746658E-03
  0.82269560E-03  0.81270996E-03  0.79778343E-03  0.77820974E-03  0.75430001E-03
  0.72638018E-03  0.69478838E-03  0.65987243E-03  0.62198730E-03  0.58149265E-03
  0.53875046E-03  0.49412269E-03  0.44796911E-03  0.40064509E-03  0.35249968E-03
  0.30387364E-03  0.25509769E-03  0.20649084E-03  0.15835889E-03  0.11099305E-03
  0.64668669E-04  0.19644160E-04 -0.23839960E-04 -0.65561888E-04 -0.10531920E-03
 -0.14292940E-03 -0.17823025E-03 -0.21108011E-03 -0.24135797E-03 -0.26896347E-03
 -0.29381680E-03 -0.31585837E-03 -0.33504851E-03 -0.35136694E-03 -0.36481221E-03
 -0.37540106E-03 -0.38316760E-03 -0.38816252E-03 -0.39045218E-03 -0.39011761E-03
 -0.38725352E-03 -0.38196720E-03 -0.37437742E-03 -0.36461331E-03 -0.35281316E-03
 -0.33912325E-03 -0.32369668E-03 -0.30669217E-03 -0.28827288E-03 -0.26860526E-03
 -0.24785787E-03 -0.22620030E-03 -0.20380205E-03 -0.18083153E-03 -0.15745497E-03
 -0.13383557E-03 -0.11013248E-03 -0.86500048E-04 -0.63086963E-04 -0.40035546E-04
 -0.17481078E-04  0.44488002E-05  0.25634627E-04  0.45965585E-04  0.65339905E-04
  0.83665190E-04  0.10085869E-03  0.11684747E-03  0.13156858E-03  0.14496908E-03
  0.15700607E-03  0.16764659E-03  0.17686754E-03  0.18465549E-03  0.19100645E-03
  0.19592557E-03  0.19942683E-03  0.20153270E-03  0.20227368E-03  0.20168786E-03
  0.19982048E-03  0.19672339E-03  0.19245453E-03  0.18707738E-03  0.18066038E-03
  0.17327637E-03  0.16500199E-03  0.15591709E-03  0.14610414E-03  0.13564762E-03
  0.12463346E-03  0.11314845E-03  0.10127968E-03  0.89113989E-04  0.76737447E-04
  0.64234830E-04  0.51689150E-04  0.39181187E-04  0.26789062E-04  0.14587834E-04
  0.26491299E-05 -0.89591985E-05 -0.20173376E-04 -0.30933976E-04 -0.41186162E-04
 -0.50879883E-04 -0.59970047E-04 -0.68416646E-04 -0.76184860E-04 -0.83245112E-04
 -0.89573103E-04 -0.95149805E-04 -0.99961424E-04 -0.10399933E-03 -0.10725998E-03
 -0.10974476E-03 -0.11145985E-03 -0.11241608E-03 -0.11262866E-03 -0.11211704E-03
 -0.11090462E-03 -0.10901849E-03 -0.10648919E-03 -0.10335043E-03 -0.99638737E-04
 -0.95393218E-04 -0.90655209E-04 -0.85467971E-04 -0.79876369E-04 -0.73926554E-04
 -0.67665640E-04 -0.61141394E-04 -0.54401921E-04 -0.47495360E-04 -0.40469589E-04
 -0.33371940E-04 -0.26248917E-04 -0.19145942E-04 -0.12107099E-04 -0.51749027E-05
  0.16099211E-05  0.82086369E-05  0.14584684E-04  0.20703843E-04  0.26534383E-04
  0.32047193E-04  0.37215886E-04  0.42016896E-04  0.46429542E-04  0.50436087E-04
  0.54021764E-04  0.57174790E-04  0.59886368E-04  0.62150656E-04  0.63964731E-04
  0.65328534E-04  0.66244793E-04  0.66718942E-04  0.66759012E-04  0.66375524E-04
  0.65581357E-04  0.64391611E-04  0.62823463E-04  0.60896006E-04  0.58630087E-04
  0.56048136E-04  0.53173989E-04  0.50032712E-04  0.46650410E-04  0.43054050E-04
  0.39271271E-04  0.35330199E-04  0.31259265E-04  0.27087023E-04  0.22841972E-04
  0.18552384E-04  0.14246137E-04  0.99505533E-05  0.56922442E-05  0.14969667E-05
 -0.26105150E-05 -0.66065578E-05 -0.10468758E-04 -0.14176059E-04 -0.17708850E-04
 -0.21049050E-04 -0.24180186E-04 -0.27087456E-04 -0.29757780E-04 -0.32179841E-04
 -0.34344116E-04 -0.36242892E-04 -0.37870273E-04 -0.39222173E-04 -0.40296304E-04
 -0.41092149E-04 -0.41610921E-04 -0.41855525E-04 -0.41830496E-04 -0.41541939E-04
 -0.40997456E-04 -0.40206066E-04 -0.39178119E-04 -0.37925205E-04 -0.36460054E-04
 -0.34796436E-04 -0.32949050E-04 -0.30933418E-04 -0.28765770E-04 -0.26462930E-04
 -0.24042201E-04 -0.21521245E-04 -0.18917974E-04 -0.16250426E-04 -0.13536660E-04
 -0.10794638E-04 -0.80421218E-05 -0.52965651E-05 -0.25750135E-05  0.10599136E-06
  0.27305036E-05  0.52832584E-05  0.77497519E-05  0.10116315E-04  0.12370181E-04
  0.14499542E-04  0.16493610E-04  0.18342652E-04  0.20038039E-04  0.21572269E-04
  0.22938996E-04  0.24133040E-04  0.25150404E-04  0.25988265E-04  0.26644977E-04
  0.27120053E-04  0.27414146E-04  0.27529022E-04  0.27467527E-04  0.27233552E-04
  0.26831983E-04  0.26268654E-04  0.25550292E-04  0.24684461E-04  0.23679493E-04
  0.22544427E-04  0.21288936E-04  0.19923259E-04  0.18458121E-04  0.16904662E-04
  0.15274358E-04  0.13578945E-04  0.11830339E-04  0.10040562E-04  0.82216604E-05
  0.63856357E-05  0.45443669E-05  0.27095407E-05  0.89258196E-06 -0.89541198E-06
 -0.26437342E-05 -0.43421275E-05 -0.59808396E-05 -0.75506747E-05 -0.90430399E-05
 -0.10449988E-04 -0.11764254E-04 -0.12979289E-04 -0.14089288E-04 -0.15089211E-04
 -0.15974800E-04 -0.16742593E-04 -0.17389931E-04 -0.17914958E-04 -0.18316620E-04
 -0.18594657E-04 -0.18749587E-04 -0.18782692E-04 -0.18695997E-04 -0.18492240E-04
 -0.18174846E-04 -0.17747890E-04 -0.17216063E-04 -0.16584628E-04 -0.15859383E-04
 -0.15046605E-04 -0.14153015E-04 -0.13185716E-04 -0.12152150E-04 -0.11060043E-04
 -0.99173485E-05 -0.87321989E-05 -0.75128478E-05 -0.62676173E-05 -0.50048446E-05
 -0.37328295E-05 -0.24597829E-05 -0.11937771E-05  0.57302870E-07  0.12858047E-05
  0.24843534E-05  0.36458923E-05  0.47637222E-05  0.58315366E-05  0.68434550E-05
  0.77940524E-05  0.86783851E-05  0.94920136E-05  0.10231022E-04  0.10892033E-04
  0.11472221E-04  0.11969317E-04  0.12381620E-04  0.12707990E-04  0.12947851E-04
  0.13101181E-04  0.13168509E-04  0.13150893E-04  0.13049912E-04  0.12867645E-04
  0.12606647E-04  0.12269926E-04  0.11860920E-04  0.11383462E-04  0.10841752E-04
  0.10240326E-04  0.95840188E-05  0.88779298E-05  0.81273863E-05  0.73379059E-05
  0.65151586E-05  0.56649283E-05  0.47930748E-05  0.39054950E-05  0.30080856E-05
  0.21067056E-05  0.12071402E-05  0.31506532E-06 -0.56398610E-06 -0.14246568E-05
 -0.22617960E-05 -0.30704882E-05 -0.38460807E-05 -0.45842082E-05 -0.52808156E-05
 -0.59321783E-05 -0.65349204E-05 -0.70860301E-05 -0.75828725E-05 -0.80231999E-05
 -0.84051600E-05 -0.87273002E-05 -0.89885708E-05 -0.91883247E-05 -0.93263145E-05
 -0.94026880E-05 -0.94179801E-05 -0.93731034E-05 -0.92693359E-05 -0.91083073E-05
 -0.88919824E-05 -0.86226434E-05 -0.83028701E-05 -0.79355190E-05 -0.75237004E-05
 -0.70707548E-05 -0.65802278E-05 -0.60558445E-05 -0.55014830E-05 -0.49211474E-05
 -0.43189407E-05 -0.36990366E-05 -0.30656530E-05 -0.24230239E-05 -0.17753725E-05
 -0.11268853E-05 -0.48168560E-06  0.15619101E-06  0.78282086E-06  0.13944151E-05
  0.19873412E-05  0.25581438E-05  0.31035629E-05  0.36205518E-05  0.41062927E-05
  0.45582104E-05  0.49739853E-05  0.53515629E-05  0.56891635E-05  0.59852881E-05
  0.62387238E-05  0.64485466E-05  0.66141226E-05  0.67351075E-05  0.68114438E-05
  0.68433565E-05  0.68313477E-05  0.67761882E-05  0.66789090E-05  0.65407903E-05
  0.63633495E-05  0.61483279E-05  0.58976760E-05  0.56135384E-05  0.52982364E-05
  0.49542515E-05  0.45842064E-05  0.41908469E-05  0.37770224E-05  0.33456664E-05
  0.28997768E-05  0.24423958E-05  0.19765905E-05  0.15054330E-05  0.10319810E-05
  0.55925901E-06  0.90239656E-07 -0.37217393E-06 -0.82516537E-06 -0.12660213E-05
 -0.16921467E-05 -0.21010795E-05 -0.24905039E-05 -0.28582622E-05 -0.32023666E-05
 -0.35210083E-05 -0.38125666E-05 -0.40756156E-05 -0.43089306E-05 -0.45114924E-05
 -0.46824906E-05 -0.48213252E-05 -0.49276076E-05 -0.50011592E-05 -0.50420098E-05
 -0.50503939E-05 -0.50267462E-05 -0.49716958E-05 -0.48860592E-05 -0.47708326E-05
 -0.46271827E-05 -0.44564369E-05 -0.42600726E-05 -0.40397055E-05 -0.37970778E-05
 -0.35340449E-05 -0.32525626E-05 -0.29546732E-05 -0.26424912E-05 -0.23181894E-05
 -0.19839844E-05 -0.16421217E-05 -0.12948619E-05 -0.94446595E-06 -0.59318117E-06
 -0.24322743E-06  0.10321624E-06  0.44402471E-06  0.77713913E-06  0.11005788E-05
  0.14124523E-05  0.17109681E-05  0.19944443E-05  0.22613170E-05  0.25101491E-05
  0.27396367E-05  0.29486158E-05  0.31360670E-05  0.33011205E-05  0.34430584E-05
  0.35613178E-05  0.36554915E-05  0.37253289E-05  0.37707346E-05  0.37917673E-05
  0.37886370E-05  0.37617019E-05  0.37114633E-05  0.36385615E-05  0.35437688E-05
  0.34279837E-05  0.32922230E-05  0.31376142E-05  0.29653866E-05  0.27768624E-05
  0.25734472E-05  0.23566203E-05  0.21279240E-05  0.18889536E-05  0.16413466E-05
  0.13867720E-05  0.11269194E-05  0.86348818E-06  0.59817713E-06  0.33267359E-06
  0.68643274E-07 -0.19227981E-06 -0.44850305E-06 -0.69848461E-06 -0.94074225E-06
 -0.11738618E-05 -0.13965048E-05 -0.16074163E-05 -0.18054309E-05 -0.19894792E-05
 -0.21585932E-05 -0.23119106E-05 -0.24486791E-05 -0.25682595E-05 -0.26701282E-05
 -0.27538787E-05 -0.28192231E-05 -0.28659918E-05 -0.28941335E-05 -0.29037134E-05
 -0.28949119E-05 -0.28680216E-05 -0.28234440E-05 -0.27616861E-05 -0.26833553E-05
 -0.25891545E-05 -0.24798769E-05 -0.23563993E-05 -0.22196763E-05 -0.20707326E-05
 -0.19106564E-05 -0.17405916E-05 -0.15617300E-05 -0.13753031E-05 -0.11825744E-05
 -0.98483064E-06 -0.78337398E-06 -0.57951338E-06 -0.37455652E-06 -0.16980168E-06
  0.33470226E-07  0.23400341E-06  0.43057467E-06  0.62200065E-06  0.80714467E-06
  0.98492323E-06  0.11543121E-05  0.13143521E-05  0.14641539E-05  0.16029033E-05
  0.17298647E-05  0.18443855E-05  0.19458984E-05  0.20339244E-05  0.21080746E-05
  0.21680516E-05  0.22136500E-05  0.22447571E-05  0.22613518E-05  0.22635044E-05
  0.22513744E-05  0.22252091E-05  0.21853403E-05  0.21321820E-05  0.20662263E-05
  0.19880395E-05  0.18982581E-05  0.17975836E-05  0.16867772E-05  0.15666550E-05
  0.14380819E-05  0.13019652E-05  0.11592495E-05  0.10109092E-05  0.85794308E-06
  0.70136696E-06  0.54220771E-06  0.38149646E-06  0.22026216E-06  0.59525176E-07
 -0.99709021E-07 -0.25645595E-06 -0.40975804E-06 -0.55869035E-06 -0.70236595E-06
 -0.83994104E-06 -0.97061981E-06 -0.10936588E-05 -0.12083710E-05 -0.13141296E-05
 -0.14103710E-05 -0.14965980E-05 -0.15723819E-05 -0.16373644E-05 -0.16912592E-05
 -0.17338531E-05 -0.17650061E-05 -0.17846519E-05 -0.17927973E-05 -0.17895214E-05
 -0.17749743E-05 -0.17493751E-05 -0.17130104E-05 -0.16662310E-05 -0.16094495E-05
 -0.15431368E-05 -0.14678188E-05 -0.13840719E-05 -0.12925195E-05 -0.11938269E-05
 -0.10886972E-05 -0.97786629E-06 -0.86209774E-06 -0.74217776E-06 -0.61891006E-06
 -0.49311054E-06 -0.36560205E-06 -0.23720910E-06 -0.10875269E-06  0.18954843E-07
  0.14511486E-06  0.26894727E-06  0.38969527E-06  0.50662987E-06  0.61905415E-06
  0.72630732E-06  0.82776852E-06  0.92286024E-06  0.10110516E-05  0.10918610E-05
  0.11648588E-05  0.12296696E-05  0.12859735E-05  0.13335080E-05  0.13720690E-05
  0.14015111E-05  0.14217484E-05  0.14327539E-05  0.14345593E-05  0.14272542E-05
  0.14109847E-05  0.13859521E-05  0.13524110E-05  0.13106667E-05  0.12610733E-05
  0.12040309E-05  0.11399819E-05  0.10694085E-05  0.99282887E-06  0.91079362E-06
  0.82388182E-06  0.73269712E-06  0.63786365E-06  0.54002188E-06  0.43982434E-06
  0.33793142E-06  0.23500704E-06  0.13171449E-06  0.28712158E-07 -0.73350520E-07
 -0.17383711E-06 -0.27212804E-06 -0.36762437E-06 -0.45975135E-06 -0.54796176E-06
 -0.63173913E-06 -0.71060068E-06 -0.78409993E-06 -0.85182925E-06 -0.91342192E-06
 -0.96855409E-06 -0.10169463E-05 -0.10583649E-05 -0.10926227E-05 -0.11195801E-05
 -0.11391453E-05 -0.11512741E-05 -0.11559700E-05 -0.11532835E-05 -0.11433114E-05
 -0.11261956E-05 -0.11021215E-05 -0.10713169E-05 -0.10340494E-05 -0.99062499E-06
 -0.94138516E-06 -0.88670459E-06 -0.82698836E-06 -0.76266908E-06 -0.69420386E-06
 -0.62207111E-06 -0.54676731E-06 -0.46880367E-06 -0.38870274E-06 -0.30699494E-06
 -0.22421518E-06 -0.14089938E-06 -0.57581078E-07  0.25211926E-07  0.10696083E-06
  0.18715903E-06  0.26531520E-06  0.34095622E-06  0.41362997E-06  0.48290800E-06
  0.54838793E-06  0.60969575E-06  0.66648788E-06  0.71845300E-06  0.76531367E-06
  0.80682771E-06  0.84278939E-06  0.87303029E-06  0.89741999E-06  0.91586648E-06
  0.92831631E-06  0.93475452E-06  0.93520434E-06  0.92972662E-06  0.91841899E-06
  0.90141494E-06  0.87888251E-06  0.85102289E-06  0.81806880E-06  0.78028265E-06
  0.73795460E-06  0.69140039E-06  0.64095910E-06  0.58699076E-06  0.52987382E-06
  0.47000260E-06  0.40778462E-06  0.34363787E-06  0.27798808E-06  0.21126595E-06
  0.14390436E-06  0.76335641E-07  0.89888499E-08 -0.57712915E-07 -0.12335510E-06
 -0.18753424E-06 -0.24986035E-06 -0.30995928E-06 -0.36747484E-06 -0.42207095E-06
 -0.47343343E-06 -0.52127184E-06 -0.56532099E-06 -0.60534239E-06 -0.64112543E-06
   16.2516435017787      T
 Non local Part
           2           2   1.24717655254703     
   58.7397800451009        55.5517181976898        55.5517181976898     
   52.5412417655673     
 Reciprocal Space Part
  0.00000000E+00 -0.14678102E+00 -0.58334848E+00 -0.12984523E+01 -0.22735964E+01
 -0.34834147E+01 -0.48961873E+01 -0.64744867E+01 -0.81759419E+01 -0.99541048E+01
 -0.11759403E+02 -0.13540161E+02 -0.15243665E+02 -0.16817260E+02 -0.18209446E+02
 -0.19370964E+02 -0.20255838E+02 -0.20822361E+02 -0.21034003E+02 -0.20860226E+02
 -0.20277174E+02 -0.19268252E+02 -0.17824553E+02 -0.15945145E+02 -0.13637201E+02
 -0.10915969E+02 -0.78045926E+01 -0.43337662E+01 -0.54125260E+00  0.35287446E+01
  0.78263334E+01  0.12296799E+02  0.16881565E+02  0.21519229E+02  0.26146659E+02
  0.30700123E+02  0.35116428E+02  0.39334053E+02  0.43294249E+02  0.46942081E+02
  0.50227402E+02  0.53105730E+02  0.55539009E+02  0.57496254E+02  0.58954052E+02
  0.59896917E+02  0.60317494E+02  0.60216601E+02  0.59603128E+02  0.58493768E+02
  0.56912611E+02  0.54890609E+02  0.52464900E+02  0.49678044E+02  0.46577155E+02
  0.43212964E+02  0.39638835E+02  0.35909746E+02  0.32081263E+02  0.28208525E+02
  0.24345263E+02  0.20542875E+02  0.16849566E+02  0.13309582E+02  0.99625432E+01
  0.68428864E+01  0.39794379E+01  0.13951087E+01 -0.89327777E+00 -0.28750268E+01
 -0.45454855E+01 -0.59058337E+01 -0.69627624E+01 -0.77280482E+01 -0.82180390E+01
 -0.84530648E+01 -0.84567894E+01 -0.82555200E+01 -0.78774926E+01 -0.73521501E+01
 -0.67094300E+01 -0.59790788E+01 -0.51900066E+01 -0.43696972E+01 -0.35436837E+01
 -0.27351004E+01 -0.19643178E+01 -0.12486656E+01 -0.60224686E+00 -0.35842952E-01
  0.44309278E+00  0.83035664E+00  0.11248381E+01  0.13282934E+01  0.14450583E+01
  0.14817118E+01  0.14467012E+01  0.13499414E+01  0.12024005E+01  0.10156843E+01
 Real Space Part
  0.00000000E+00  0.31043558E+00  0.12399049E+01  0.27829005E+01  0.49302604E+01
  0.76691929E+01  0.10983313E+02  0.14852690E+02  0.19253906E+02  0.24160125E+02
  0.29541184E+02  0.35363683E+02  0.41591103E+02  0.48183936E+02  0.55099826E+02
  0.62293734E+02  0.69718119E+02  0.77323133E+02  0.85056839E+02  0.92865449E+02
  0.10069357E+03  0.10848450E+03  0.11618047E+03  0.12372300E+03  0.13105321E+03
  0.13811214E+03  0.14484110E+03  0.15118205E+03  0.15707797E+03  0.16247319E+03
  0.16731385E+03  0.17154818E+03  0.17512695E+03  0.17800380E+03  0.18013562E+03
  0.18148286E+03  0.18200990E+03  0.18168531E+03  0.18048216E+03  0.17837826E+03
  0.17535639E+03  0.17140444E+03  0.16651562E+03  0.16068851E+03  0.15392715E+03
  0.14624105E+03  0.13764513E+03  0.12815969E+03  0.11781023E+03  0.10662732E+03
  0.94646026E+02  0.81909846E+02  0.69028997E+02  0.56548332E+02  0.44508745E+02
  0.32950474E+02  0.21912268E+02  0.11430814E+02  0.15404300E+01 -0.77272319E+01
 -0.16343473E+02 -0.24282826E+02 -0.31523315E+02 -0.38046705E+02 -0.43838731E+02
 -0.48889310E+02 -0.53192733E+02 -0.56747836E+02 -0.59558141E+02 -0.61631985E+02
 -0.62982602E+02 -0.63628204E+02 -0.63592000E+02 -0.62902209E+02 -0.61592026E+02
 -0.59699570E+02 -0.57267780E+02 -0.54344277E+02 -0.50981219E+02 -0.47235076E+02
 -0.43166417E+02 -0.38839650E+02 -0.34322686E+02 -0.29686664E+02 -0.25005531E+02
 -0.20355726E+02 -0.15815713E+02 -0.11465574E+02 -0.73865492E+01 -0.36605711E+01
 -0.36977017E+00  0.24040387E+01  0.45798167E+01  0.60778740E+01  0.68208038E+01
  0.67310801E+01  0.57344496E+01  0.38374502E+01  0.52304526E+00 -0.35359599E-12
 Reciprocal Space Part
  0.00000000E+00  0.15536205E+00  0.61761814E+00  0.13753552E+01  0.24098070E+01
  0.36952326E+01  0.51994356E+01  0.68844138E+01  0.87071282E+01  0.10620374E+02
  0.12573740E+02  0.14514631E+02  0.16389345E+02  0.18144170E+02  0.19726489E+02
  0.21085869E+02  0.22175108E+02  0.22951231E+02  0.23376395E+02  0.23418711E+02
  0.23052942E+02  0.22261082E+02  0.21032788E+02  0.19365675E+02  0.17265443E+02
  0.14745865E+02  0.11828603E+02  0.85428769E+01  0.49249888E+01  0.10177054E+01
 -0.31304838E+01 -0.74662196E+01 -0.11932220E+02 -0.16468306E+02 -0.21012476E+02
 -0.25502022E+02 -0.29874657E+02 -0.34069623E+02 -0.38028781E+02 -0.41697637E+02
 -0.45026299E+02 -0.47970341E+02 -0.50491557E+02 -0.52558592E+02 -0.54147441E+02
 -0.55241801E+02 -0.55833273E+02 -0.55921416E+02 -0.55513643E+02 -0.54624973E+02
 -0.53277642E+02 -0.51500579E+02 -0.49328766E+02 -0.46802489E+02 -0.43966510E+02
 -0.40869155E+02 -0.37561367E+02 -0.34095723E+02 -0.30525440E+02 -0.26903398E+02
 -0.23281195E+02 -0.19708250E+02 -0.16230976E+02 -0.12892040E+02 -0.97297186E+01
 -0.67773639E+01 -0.40629848E+01 -0.16089537E+01  0.56816117E+00  0.24576392E+01
  0.40545272E+01  0.53594425E+01  0.63782680E+01  0.71217486E+01  0.76050024E+01
  0.78469602E+01  0.78697494E+01  0.76980373E+01  0.73583517E+01  0.68783942E+01
  0.62863636E+01  0.56103035E+01  0.48774901E+01  0.41138704E+01  0.33435654E+01
  0.25884435E+01  0.18677740E+01  0.11979642E+01  0.59238223E+00  0.61266340E-01
 -0.38828165E+00 -0.75222310E+00 -0.10294352E+01 -0.12214978E+01 -0.13324227E+01
 -0.13683361E+01 -0.13371259E+01 -0.12480641E+01 -0.11114159E+01 -0.93804855E+00
 Real Space Part
  0.00000000E+00 -0.29064586E+00 -0.11608173E+01 -0.26052213E+01 -0.46150542E+01
 -0.71780292E+01 -0.10278415E+02 -0.13897087E+02 -0.18011587E+02 -0.22596205E+02
 -0.27622059E+02 -0.33057207E+02 -0.38866756E+02 -0.45013000E+02 -0.51455567E+02
 -0.58151582E+02 -0.65055849E+02 -0.72121050E+02 -0.79297959E+02 -0.86535675E+02
 -0.93781871E+02 -0.10098306E+03 -0.10808488E+03 -0.11503238E+03 -0.12177033E+03
 -0.12824357E+03 -0.13439730E+03 -0.14017745E+03 -0.14553104E+03 -0.15040647E+03
 -0.15475394E+03 -0.15852579E+03 -0.16167680E+03 -0.16416458E+03 -0.16594987E+03
 -0.16699686E+03 -0.16727350E+03 -0.16675175E+03 -0.16540783E+03 -0.16322248E+03
 -0.16018110E+03 -0.15627393E+03 -0.15149619E+03 -0.14584814E+03 -0.13933510E+03
 -0.13196750E+03 -0.12376080E+03 -0.11473542E+03 -0.10491657E+03 -0.94334126E+02
 -0.83022061E+02 -0.71022181E+02 -0.58911819E+02 -0.47204988E+02 -0.35938589E+02
 -0.25148822E+02 -0.14870418E+02 -0.51361054E+01  0.40236608E+01  0.12580973E+02
  0.20510724E+02  0.27790857E+02  0.34402600E+02  0.40330685E+02  0.45563554E+02
  0.50093546E+02  0.53917067E+02  0.57034737E+02  0.59451516E+02  0.61176814E+02
  0.62224558E+02  0.62613258E+02  0.62366021E+02  0.61510551E+02  0.60079112E+02
  0.58108478E+02  0.55639820E+02  0.52718582E+02  0.49394337E+02  0.45720571E+02
  0.41754486E+02  0.37556751E+02  0.33191190E+02  0.28724521E+02  0.24225969E+02
  0.19766966E+02  0.15420721E+02  0.11261841E+02  0.73659030E+01  0.38090262E+01
  0.66741217E+00 -0.19831280E+01 -0.40675989E+01 -0.55123481E+01 -0.62459302E+01
 -0.61968726E+01 -0.52968185E+01 -0.35524383E+01 -0.48472755E+00  0.32784511E-12
 Non local Part
           0           2   1.24717655254703     
   2.59963852908721        4.69510741881334        4.69510741881334     
   8.52218757532036     
 Reciprocal Space Part
  0.26195620E+02  0.25852897E+02  0.24831107E+02  0.23149251E+02  0.20838549E+02
  0.17941786E+02  0.14512406E+02  0.10613395E+02  0.63159638E+01  0.16980665E+01
 -0.31572080E+01 -0.81633406E+01 -0.13232139E+02 -0.18275511E+02 -0.23207209E+02
 -0.27944517E+02 -0.32409829E+02 -0.36532098E+02 -0.40248119E+02 -0.43503618E+02
 -0.46254133E+02 -0.48465664E+02 -0.50115084E+02 -0.51190313E+02 -0.51690242E+02
 -0.51624430E+02 -0.51012577E+02 -0.49883794E+02 -0.48275690E+02 -0.46233302E+02
 -0.43807902E+02 -0.41055705E+02 -0.38036511E+02 -0.34812324E+02 -0.31445967E+02
 -0.27999736E+02 -0.24534123E+02 -0.21106621E+02 -0.17770658E+02 -0.14574667E+02
 -0.11561303E+02 -0.87668393E+01 -0.62207324E+01 -0.39453653E+01 -0.19559704E+01
 -0.26072136E+00  0.11390127E+01  0.22482660E+01  0.30779443E+01  0.36441806E+01
  0.39676028E+01  0.40725325E+01  0.39861413E+01  0.37375870E+01  0.33571532E+01
  0.28754136E+01  0.23224427E+01  0.17270887E+01  0.11163271E+01  0.51470461E+00
 -0.56115124E-01 -0.57769788E+00 -0.10350750E+01 -0.14168688E+01 -0.17153105E+01
 -0.19261567E+01 -0.20485132E+01 -0.20845759E+01 -0.20393022E+01 -0.19200260E+01
 -0.17360312E+01 -0.14980979E+01 -0.12180374E+01 -0.90822942E+00 -0.58117555E+00
 -0.24908081E+00  0.76525357E-01  0.38512014E+00  0.66746328E+00  0.91581293E+00
  0.11240785E+01  0.12879102E+01  0.14047254E+01  0.14736766E+01  0.14955640E+01
  0.14727002E+01  0.14087339E+01  0.13084402E+01  0.11774878E+01  0.10221909E+01
  0.84925469E+00  0.66552477E+00  0.47774658E+00  0.29234355E+00  0.11521966E+00
 -0.48408201E-01 -0.19414440E+00 -0.31851247E+00 -0.41901576E+00 -0.49416077E+00
 Real Space Part
 -0.14535401E+03 -0.14529382E+03 -0.14511313E+03 -0.14481158E+03 -0.14438857E+03
 -0.14384331E+03 -0.14317477E+03 -0.14238179E+03 -0.14146304E+03 -0.14041710E+03
 -0.13924249E+03 -0.13793768E+03 -0.13650119E+03 -0.13493162E+03 -0.13322767E+03
 -0.13138827E+03 -0.12941256E+03 -0.12729999E+03 -0.12505040E+03 -0.12266403E+03
 -0.12014161E+03 -0.11748442E+03 -0.11469433E+03 -0.11177388E+03 -0.10872629E+03
 -0.10555557E+03 -0.10226651E+03 -0.98864734E+02 -0.95356757E+02 -0.91749989E+02
 -0.88052769E+02 -0.84274383E+02 -0.80425073E+02 -0.76516039E+02 -0.72559441E+02
 -0.68568382E+02 -0.64556895E+02 -0.60539915E+02 -0.56533244E+02 -0.52553511E+02
 -0.48618126E+02 -0.44745220E+02 -0.40953580E+02 -0.37262586E+02 -0.33692125E+02
 -0.30262512E+02 -0.26994401E+02 -0.23908686E+02 -0.21026403E+02 -0.18368630E+02
 -0.15956459E+02 -0.13809612E+02 -0.11773640E+02 -0.97107302E+01 -0.76358042E+01
 -0.55624184E+01 -0.35030140E+01 -0.14690796E+01  0.52877931E+00  0.24807776E+01
  0.43778988E+01  0.62118471E+01  0.79750081E+01  0.96604118E+01  0.11261702E+02
  0.12773108E+02  0.14189417E+02  0.15505953E+02  0.16718556E+02  0.17823556E+02
  0.18817762E+02  0.19698436E+02  0.20463279E+02  0.21110414E+02  0.21638366E+02
  0.22046049E+02  0.22332749E+02  0.22498106E+02  0.22542108E+02  0.22465067E+02
  0.22267611E+02  0.21950669E+02  0.21515461E+02  0.20963485E+02  0.20296510E+02
  0.19516556E+02  0.18625891E+02  0.17627025E+02  0.16522690E+02  0.15315837E+02
  0.14009625E+02  0.12607414E+02  0.11112746E+02  0.95293410E+01  0.78613128E+01
  0.61116766E+01  0.42837867E+01  0.24201586E+01  0.29712952E+00 -0.18917243E-12
 Reciprocal Space Part
 -0.64473833E+01 -0.62784920E+01 -0.57750807E+01 -0.49468674E+01 -0.38098176E+01
 -0.23858033E+01 -0.70213694E+00  0.12090088E+01  0.33112820E+01  0.55649175E+01
  0.79275690E+01  0.10355190E+02  0.12802940E+02  0.15226103E+02  0.17580985E+02
  0.19825781E+02  0.21921392E+02  0.23832163E+02  0.25526547E+02  0.26977654E+02
  0.28163704E+02  0.29068351E+02  0.29680886E+02  0.29996314E+02  0.30015309E+02
  0.29744041E+02  0.29193892E+02  0.28381069E+02  0.27326116E+02  0.26053356E+02
  0.24590254E+02  0.22966747E+02  0.21214531E+02  0.19366336E+02  0.17455207E+02
  0.15513803E+02  0.13573730E+02  0.11664929E+02  0.98151169E+01  0.80493128E+01
  0.63894365E+01  0.48540002E+01  0.34578915E+01  0.22122495E+01  0.11244338E+01
  0.19808334E+00 -0.56674103E+00 -0.11733368E+01 -0.16280722E+01 -0.19400411E+01
 -0.21206709E+01 -0.21832973E+01 -0.21427157E+01 -0.20147245E+01 -0.18156704E+01
 -0.15620076E+01 -0.12698828E+01 -0.95475305E+00 -0.63104739E+00 -0.31187610E+00
 -0.87945229E-02  0.26837633E+00  0.51167055E+00  0.71503977E+00  0.87435881E+00
  0.98737805E+00  0.10536269E+01  0.10742738E+01  0.10519502E+01  0.99054454E+00
  0.89497505E+00  0.77094847E+00  0.62471319E+00  0.46281393E+00  0.29185535E+00
  0.11828087E+00 -0.51827447E-01 -0.21292345E+00 -0.36014211E+00 -0.48941286E+00
 -0.59753960E+00 -0.68224698E+00 -0.74219372E+00 -0.77695456E+00 -0.78697347E+00
 -0.77349133E+00 -0.73845215E+00 -0.68439195E+00 -0.61431523E+00 -0.53156361E+00
 -0.43968156E+00 -0.34228371E+00 -0.24292813E+00 -0.14499928E+00 -0.51604136E-01
  0.34516022E-01  0.11105592E+00  0.17619753E+00  0.22864152E+00  0.26761907E+00
 Real Space Part
  0.84664603E+02  0.84630115E+02  0.84526588E+02  0.84353836E+02  0.84111557E+02
  0.83799337E+02  0.83416661E+02  0.82962929E+02  0.82437470E+02  0.81839561E+02
  0.81168451E+02  0.80423378E+02  0.79603602E+02  0.78708427E+02  0.77737233E+02
  0.76689504E+02  0.75564859E+02  0.74363085E+02  0.73084167E+02  0.71728322E+02
  0.70296031E+02  0.68788068E+02  0.67205531E+02  0.65549874E+02  0.63822931E+02
  0.62026941E+02  0.60164578E+02  0.58238964E+02  0.56253693E+02  0.54212846E+02
  0.52121000E+02  0.49983243E+02  0.47805173E+02  0.45592906E+02  0.43353070E+02
  0.41092800E+02  0.38819730E+02  0.36541976E+02  0.34268121E+02  0.32007190E+02
  0.29768626E+02  0.27562259E+02  0.25398269E+02  0.23287155E+02  0.21239687E+02
  0.19266864E+02  0.17379866E+02  0.15590000E+02  0.13908653E+02  0.12347228E+02
  0.10917137E+02  0.96290907E+01  0.84054705E+01  0.71763708E+01  0.59490428E+01
  0.47300807E+01  0.35255449E+01  0.23410398E+01  0.11817462E+01  0.52448931E-01
 -0.10424388E+01 -0.20988540E+01 -0.31130664E+01 -0.40816615E+01 -0.50015267E+01
 -0.58698385E+01 -0.66840512E+01 -0.74418857E+01 -0.81413206E+01 -0.87805816E+01
 -0.93581342E+01 -0.98726736E+01 -0.10323118E+02 -0.10708597E+02 -0.11028450E+02
 -0.11282210E+02 -0.11469603E+02 -0.11590537E+02 -0.11645095E+02 -0.11633531E+02
 -0.11556261E+02 -0.11413854E+02 -0.11207031E+02 -0.10936658E+02 -0.10603738E+02
 -0.10209408E+02 -0.97549320E+01 -0.92416992E+01 -0.86712150E+01 -0.80450986E+01
 -0.73650778E+01 -0.66329858E+01 -0.58507482E+01 -0.50203867E+01 -0.41441278E+01
 -0.32236171E+01 -0.22606784E+01 -0.12778273E+01 -0.15693152E+00  0.99956813E-13
 Non local Part
           1           2   1.24717655254703     
   4.55773228129856        5.57159164563426        5.57159164563426     
   6.84543849621210     
 Reciprocal Space Part
  0.00000000E+00  0.92430446E+00  0.18203131E+01  0.26603825E+01  0.34181589E+01
  0.40691834E+01  0.45914534E+01  0.49659240E+01  0.51769397E+01  0.52125849E+01
  0.50649466E+01  0.47302821E+01  0.42090891E+01  0.35060772E+01  0.26300416E+01
  0.15936439E+01  0.41310450E+00 -0.89218308E+00 -0.23001080E+01 -0.37863547E+01
 -0.53249610E+01 -0.68889055E+01 -0.84507126E+01 -0.99830583E+01 -0.11459363E+02
 -0.12854358E+02 -0.14144612E+02 -0.15309005E+02 -0.16329143E+02 -0.17189694E+02
 -0.17878661E+02 -0.18387559E+02 -0.18711512E+02 -0.18849270E+02 -0.18803136E+02
 -0.18578819E+02 -0.18185209E+02 -0.17634088E+02 -0.16939787E+02 -0.16118787E+02
 -0.15189293E+02 -0.14170779E+02 -0.13083516E+02 -0.11948110E+02 -0.10785038E+02
 -0.96142161E+01 -0.84545878E+01 -0.73237629E+01 -0.62376977E+01 -0.52104302E+01
 -0.42538738E+01 -0.33776711E+01 -0.25891099E+01 -0.18931000E+01 -0.12922093E+01
 -0.78675555E+00 -0.37494775E+00 -0.53072879E-01  0.18428047E+00  0.34396860E+00
  0.43401761E+00  0.46333507E+00  0.44141680E+00  0.37805686E+00  0.28306833E+00
  0.16602187E+00  0.36008156E-01 -0.98570561E-01 -0.23017577E+00 -0.35227185E+00
 -0.45942734E+00 -0.54737760E+00 -0.61304952E+00 -0.65454967E+00 -0.67111867E+00
 -0.66305501E+00 -0.63161247E+00 -0.57887588E+00 -0.50762020E+00 -0.42115834E+00
 -0.32318280E+00 -0.21760672E+00 -0.10840890E+00  0.51222963E-03  0.10547205E+00
  0.20311684E+00  0.29052203E+00  0.36526947E+00  0.42550262E+00  0.46995906E+00
  0.49798086E+00  0.50950345E+00  0.50502502E+00  0.48555827E+00  0.45256732E+00
  0.40789271E+00  0.35366770E+00  0.29222907E+00  0.22602598E+00  0.15752978E+00
 Real Space Part
  0.00000000E+00 -0.29208697E+01 -0.58307412E+01 -0.87186613E+01 -0.11573767E+02
 -0.14385330E+02 -0.17142800E+02 -0.19835853E+02 -0.22454427E+02 -0.24988772E+02
 -0.27429489E+02 -0.29767569E+02 -0.31994436E+02 -0.34101984E+02 -0.36082616E+02
 -0.37929276E+02 -0.39635489E+02 -0.41195388E+02 -0.42603750E+02 -0.43856020E+02
 -0.44948342E+02 -0.45877581E+02 -0.46641345E+02 -0.47238006E+02 -0.47666717E+02
 -0.47927422E+02 -0.48020876E+02 -0.47948644E+02 -0.47713113E+02 -0.47317488E+02
 -0.46765797E+02 -0.46062884E+02 -0.45214396E+02 -0.44226779E+02 -0.43107260E+02
 -0.41863824E+02 -0.40505197E+02 -0.39040819E+02 -0.37480812E+02 -0.35835947E+02
 -0.34117611E+02 -0.32337761E+02 -0.30508886E+02 -0.28643956E+02 -0.26756373E+02
 -0.24859922E+02 -0.22968707E+02 -0.21097101E+02 -0.19259681E+02 -0.17471163E+02
 -0.15746353E+02 -0.14099943E+02 -0.12526018E+02 -0.11009810E+02 -0.95499837E+01
 -0.81454324E+01 -0.67952725E+01 -0.54988294E+01 -0.42556170E+01 -0.30653176E+01
 -0.19277627E+01 -0.84291552E+00  0.18914704E+00  0.11682508E+01  0.20941403E+01
  0.29664943E+01  0.37849398E+01  0.45490663E+01  0.52584382E+01  0.59126070E+01
  0.65111224E+01  0.70535422E+01  0.75394421E+01  0.79684234E+01  0.83401214E+01
  0.86542116E+01  0.89104156E+01  0.91085078E+01  0.92483198E+01  0.93297451E+01
  0.93527434E+01  0.93173428E+01  0.92236462E+01  0.90718323E+01  0.88621607E+01
  0.85949721E+01  0.82706910E+01  0.78898328E+01  0.74529989E+01  0.69608824E+01
  0.64142689E+01  0.58140389E+01  0.51611614E+01  0.44567019E+01  0.37019267E+01
  0.28975872E+01  0.20446196E+01  0.11629547E+01  0.14374972E+00 -0.92106857E-13
 Reciprocal Space Part
  0.00000000E+00 -0.25597900E+00 -0.49641668E+00 -0.70615972E+00 -0.87082119E+00
 -0.97714003E+00 -0.10133128E+01 -0.96928956E+00 -0.83702639E+00 -0.61068911E+00
 -0.28680263E+00  0.13565714E+00  0.65523086E+00  0.12680034E+01  0.19676903E+01
  0.27457813E+01  0.35917357E+01  0.44932257E+01  0.54364208E+01  0.64063059E+01
  0.73870251E+01  0.83622429E+01  0.93155132E+01  0.10230648E+02  0.11092074E+02
  0.11885175E+02  0.12596606E+02  0.13214570E+02  0.13729059E+02  0.14132053E+02
  0.14417663E+02  0.14582224E+02  0.14624343E+02  0.14544882E+02  0.14346899E+02
  0.14035538E+02  0.13617869E+02  0.13102696E+02  0.12500322E+02  0.11822298E+02
  0.11081134E+02  0.10290015E+02  0.94624946E+01  0.86122038E+01  0.77525583E+01
  0.68964860E+01  0.60561749E+01  0.52428482E+01  0.44665710E+01  0.37360910E+01
  0.30587191E+01  0.24402467E+01  0.18849050E+01  0.13953615E+01  0.97275502E+00
  0.61676576E+00  0.32571620E+00  0.96700346E-01 -0.74264343E-01 -0.19206694E+00
 -0.26232034E+00 -0.29117124E+00 -0.28510812E+00 -0.25077246E+00 -0.19477792E+00
 -0.12354204E+00 -0.43134217E-01  0.40856888E-01  0.12343380E+00  0.20027697E+00
  0.26780657E+00  0.32321930E+00  0.36450043E+00  0.39041238E+00  0.40046148E+00
  0.39484528E+00  0.37438310E+00  0.34043289E+00  0.29479774E+00  0.23962550E+00
  0.17730493E+00  0.11036179E+00  0.41358037E-01 -0.27202904E-01 -0.92962241E-01
 -0.15378114E+00 -0.20780350E+00 -0.25350504E+00 -0.28972783E+00 -0.31570018E+00
 -0.33104204E+00 -0.33575661E+00 -0.33020926E+00 -0.31509529E+00 -0.29139809E+00
 -0.26033984E+00 -0.22332666E+00 -0.18189048E+00 -0.13762978E+00 -0.92151209E-01
 Real Space Part
  0.00000000E+00  0.22058213E+01  0.44036602E+01  0.65855663E+01  0.87436530E+01
  0.10870129E+02  0.12957331E+02  0.14997753E+02  0.16984079E+02  0.18909210E+02
  0.20766298E+02  0.22548772E+02  0.24250368E+02  0.25865154E+02  0.27387559E+02
  0.28812396E+02  0.30134889E+02  0.31350694E+02  0.32455921E+02  0.33447156E+02
  0.34321477E+02  0.35076475E+02  0.35710265E+02  0.36221505E+02  0.36609403E+02
  0.36873729E+02  0.37014827E+02  0.37033612E+02  0.36931583E+02  0.36710819E+02
  0.36373977E+02  0.35924296E+02  0.35365582E+02  0.34702207E+02  0.33939095E+02
  0.33081710E+02  0.32136041E+02  0.31108581E+02  0.30006310E+02  0.28836671E+02
  0.27607543E+02  0.26327213E+02  0.25004348E+02  0.23647961E+02  0.22267376E+02
  0.20872193E+02  0.19472247E+02  0.18077569E+02  0.16698344E+02  0.15344867E+02
  0.14027499E+02  0.12756592E+02  0.11535894E+02  0.10361754E+02  0.92328265E+01
  0.81479579E+01  0.71061756E+01  0.61066715E+01  0.51487867E+01  0.42319963E+01
  0.33558951E+01  0.25201844E+01  0.17246588E+01  0.96919368E+00  0.25373383E+00
 -0.42171807E+00 -0.10571121E+01 -0.16523610E+01 -0.22073498E+01 -0.27219444E+01
 -0.31960000E+01 -0.36293681E+01 -0.40219043E+01 -0.43734734E+01 -0.46839560E+01
 -0.49532528E+01 -0.51812898E+01 -0.53680221E+01 -0.55134382E+01 -0.56175629E+01
 -0.56804608E+01 -0.57022381E+01 -0.56830467E+01 -0.56230858E+01 -0.55226046E+01
 -0.53819038E+01 -0.52013364E+01 -0.49813134E+01 -0.47223002E+01 -0.44248210E+01
 -0.40894590E+01 -0.37168584E+01 -0.33077204E+01 -0.28628081E+01 -0.23830148E+01
 -0.18688993E+01 -0.13211405E+01 -0.75274240E+00 -0.93148219E-01  0.59780289E-13
 PAW radial sets
         349  0.979054374296948     
(5E20.12)                                
 augmentation charges (non sperical)
  0.718223261463E+00  0.687960145641E+00 -0.955096299653E-01 -0.165309442354E+00 -0.166948039786E+00
 -0.195148755468E+00  0.687960145641E+00  0.658971853815E+00 -0.941301819584E-01 -0.163060440191E+00
 -0.162458990842E+00 -0.190295727282E+00 -0.955096299653E-01 -0.941301819584E-01 -0.821020762592E-01
 -0.156040867141E+00 -0.584225310801E-01 -0.960818986662E-01 -0.165309442354E+00 -0.163060440191E+00
 -0.156040867141E+00 -0.296878894412E+00 -0.111265525818E+00 -0.182548723695E+00 -0.166948039786E+00
 -0.162458990842E+00 -0.584225310801E-01 -0.111265525818E+00 -0.312113489442E-01 -0.588151894096E-01
 -0.195148755468E+00 -0.190295727282E+00 -0.960818986662E-01 -0.182548723695E+00 -0.588151894096E-01
 -0.102948758412E+00
 uccopancies in atom
  0.179999999637E+01  0.000000000000E+00  0.000000000000E+00  0.000000000000E+00  0.000000000000E+00
  0.000000000000E+00  0.000000000000E+00  0.000000000000E+00  0.000000000000E+00  0.000000000000E+00
  0.000000000000E+00  0.000000000000E+00  0.000000000000E+00  0.000000000000E+00  0.100000000295E+01
  0.000000000000E+00  0.000000000000E+00  0.000000000000E+00  0.000000000000E+00  0.000000000000E+00
  0.000000000000E+00  0.000000000000E+00  0.000000000000E+00  0.000000000000E+00  0.000000000000E+00
  0.000000000000E+00  0.000000000000E+00  0.000000000000E+00  0.000000000000E+00  0.000000000000E+00
  0.000000000000E+00  0.000000000000E+00  0.000000000000E+00  0.000000000000E+00  0.000000000000E+00
  0.000000000000E+00
 grid
  0.451659037616E-04  0.466345862767E-04  0.481510266834E-04  0.497167779490E-04  0.513334435397E-04
  0.530026790624E-04  0.547261939599E-04  0.565057532624E-04  0.583431793938E-04  0.602403540393E-04
  0.621992200714E-04  0.642217835400E-04  0.663101157270E-04  0.684663552669E-04  0.706927103375E-04
  0.729914609210E-04  0.753649611387E-04  0.778156416623E-04  0.803460122029E-04  0.829586640810E-04
  0.856562728803E-04  0.884416011881E-04  0.913175014239E-04  0.942869187609E-04  0.973528941420E-04
  0.100518567394E-03  0.103787180442E-03  0.107162080633E-03  0.110646724158E-03  0.114244679598E-03
  0.117959631573E-03  0.121795384518E-03  0.125755866581E-03  0.129845133639E-03  0.134067373461E-03
  0.138426909989E-03  0.142928207769E-03  0.147575876523E-03  0.152374675871E-03  0.157329520202E-03
  0.162445483710E-03  0.167727805588E-03  0.173181895396E-03  0.178813338599E-03  0.184627902285E-03
  0.190631541077E-03  0.196830403226E-03  0.203230836907E-03  0.209839396724E-03  0.216662850420E-03
  0.223708185808E-03  0.230982617927E-03  0.238493596431E-03  0.246248813218E-03  0.254256210308E-03
  0.262523987976E-03  0.271060613147E-03  0.279874828073E-03  0.288975659280E-03  0.298372426814E-03
  0.308074753786E-03  0.318092576226E-03  0.328436153261E-03  0.339116077617E-03  0.350143286470E-03
  0.361529072645E-03  0.373285096183E-03  0.385423396279E-03  0.397956403612E-03  0.410896953077E-03
  0.424258296929E-03  0.438054118350E-03  0.452298545468E-03  0.467006165819E-03  0.482192041294E-03
  0.497871723555E-03  0.514061269967E-03  0.530777260040E-03  0.548036812409E-03  0.565857602364E-03
  0.584257879951E-03  0.603256488662E-03  0.622872884732E-03  0.643127157066E-03  0.664040047808E-03
  0.685632973585E-03  0.707928047441E-03  0.730948101479E-03  0.754716710247E-03  0.779258214876E-03
  0.804597748012E-03  0.830761259552E-03  0.857775543217E-03  0.885668263994E-03  0.914467986467E-03
  0.944204204068E-03  0.974907369283E-03  0.100660892484E-02  0.103934133589E-02  0.107313812329E-02
  0.110803389791E-02  0.114406439606E-02  0.118126651613E-02  0.121967835634E-02  0.125933925376E-02
  0.130028982462E-02  0.134257200590E-02  0.138622909822E-02  0.143130581027E-02  0.147784830455E-02
  0.152590424464E-02  0.157552284401E-02  0.162675491645E-02  0.167965292807E-02  0.173427105107E-02
  0.179066521917E-02  0.184889318494E-02  0.190901457889E-02  0.197109097059E-02  0.203518593168E-02
  0.210136510101E-02  0.216969625183E-02  0.224024936121E-02  0.231309668170E-02  0.238831281531E-02
  0.246597478996E-02  0.254616213827E-02  0.262895697911E-02  0.271444410162E-02  0.280271105210E-02
  0.289384822360E-02  0.298794894857E-02  0.308510959435E-02  0.318542966196E-02  0.328901188789E-02
  0.339596234940E-02  0.350639057311E-02  0.362040964718E-02  0.373813633709E-02  0.385969120526E-02
  0.398519873450E-02  0.411478745549E-02  0.424859007841E-02  0.438674362882E-02  0.452938958804E-02
  0.467667403800E-02  0.482874781084E-02  0.498576664340E-02  0.514789133667E-02  0.531528792052E-02
  0.548812782368E-02  0.566658804930E-02  0.585085135625E-02  0.604110644627E-02  0.623754815719E-02
  0.644037766248E-02  0.664980267728E-02  0.686603767112E-02  0.708930408752E-02  0.731983057079E-02
  0.755785320021E-02  0.780361573174E-02  0.805736984770E-02  0.831937541447E-02  0.858990074864E-02
  0.886922289181E-02  0.915762789424E-02  0.945541110788E-02  0.976287748874E-02  0.100803419093E-01
  0.104081294808E-01  0.107465758864E-01  0.110960277248E-01  0.114568428652E-01  0.118293908138E-01
  0.122140530924E-01  0.126112236286E-01  0.130213091599E-01  0.134447296496E-01  0.138819187173E-01
  0.143333240828E-01  0.147994080247E-01  0.152806478537E-01  0.157775364013E-01  0.162905825249E-01
  0.168203116286E-01  0.173672662012E-01  0.179320063721E-01  0.185151104844E-01  0.191171756878E-01
  0.197388185496E-01  0.203806756865E-01  0.210434044163E-01  0.217276834310E-01  0.224342134923E-01
  0.231637181485E-01  0.239169444763E-01  0.246946638452E-01  0.254976727078E-01  0.263267934153E-01
  0.271828750599E-01  0.280667943439E-01  0.289794564778E-01  0.299217961076E-01  0.308947782713E-01
  0.318993993876E-01  0.329366882764E-01  0.340077072122E-01  0.351135530119E-01  0.362553581582E-01
  0.374342919595E-01  0.386515617468E-01  0.399084141110E-01  0.412061361786E-01  0.425460569304E-01
  0.439295485623E-01  0.453580278907E-01  0.468329578033E-01  0.483558487571E-01  0.499282603256E-01
  0.515518027956E-01  0.532281388165E-01  0.549589851029E-01  0.567461141925E-01  0.585913562618E-01
  0.604966009999E-01  0.624637995439E-01  0.644949664769E-01  0.665921818915E-01  0.687575935194E-01
  0.709934189314E-01  0.733019478082E-01  0.756855442849E-01  0.781466493727E-01  0.806877834583E-01
  0.833115488849E-01  0.860206326178E-01  0.888178089953E-01  0.917059425705E-01  0.946879910445E-01
  0.977670082956E-01  0.100946147507E+00  0.104228664394E+00  0.107617920541E+00  0.111117386843E+00
  0.114730647059E+00  0.118461401484E+00  0.122313470735E+00  0.126290799668E+00  0.130397461417E+00
  0.134637661560E+00  0.139015742434E+00  0.143536187576E+00  0.148203626317E+00  0.153022838522E+00
  0.157998759486E+00  0.163136484985E+00  0.168441276501E+00  0.173918566604E+00  0.179573964516E+00
  0.185413261859E+00  0.191442438586E+00  0.197667669098E+00  0.204095328577E+00  0.210731999506E+00
  0.217584478418E+00  0.224659782849E+00  0.231965158530E+00  0.239508086803E+00  0.247296292286E+00
  0.255337750783E+00  0.263640697448E+00  0.272213635226E+00  0.281065343554E+00  0.290204887354E+00
  0.299641626318E+00  0.309385224492E+00  0.319445660170E+00  0.329833236120E+00  0.340558590125E+00
  0.351632705886E+00  0.363066924265E+00  0.374872954901E+00  0.387062888201E+00  0.399649207721E+00
  0.412644802954E+00  0.426062982523E+00  0.439917487817E+00  0.454222507061E+00  0.468992689844E+00
  0.484243162124E+00  0.499989541718E+00  0.516247954293E+00  0.533035049885E+00  0.550368019948E+00
  0.568264614956E+00  0.586743162588E+00  0.605822586490E+00  0.625522425660E+00  0.645862854455E+00
  0.666864703251E+00  0.688549479777E+00  0.710939391139E+00  0.734057366561E+00  0.757927080873E+00
  0.782572978746E+00  0.808020299734E+00  0.834295104117E+00  0.861424299592E+00  0.889435668823E+00
  0.918357897903E+00  0.948220605720E+00  0.979054374297E+00  0.101089078011E+01  0.104376242641E+01
  0.107770297665E+01  0.111274718891E+01  0.114893095153E+01  0.118629131984E+01  0.122486655413E+01
  0.126469615880E+01  0.130582092285E+01  0.134828296164E+01  0.139212576000E+01  0.143739421678E+01
  0.148413469085E+01  0.153239504854E+01  0.158222471266E+01  0.163367471314E+01  0.168679773930E+01
  0.174164819373E+01  0.179828224811E+01  0.185675790065E+01  0.191713503554E+01  0.197947548423E+01
  0.204384308879E+01  0.211030376727E+01  0.217892558122E+01  0.224977880536E+01  0.232293599960E+01
  0.239847208329E+01  0.247646441199E+01  0.255699285664E+01  0.264013988542E+01  0.272599064815E+01
  0.281463306352E+01  0.290615790909E+01  0.300065891432E+01  0.309823285648E+01
 aepotential
  0.136295253268E+05  0.137730253077E+05  0.138949405318E+05  0.139943146262E+05  0.140703609479E+05
  0.141224485409E+05  0.141501165408E+05  0.141530808159E+05  0.141312395872E+05  0.140846785980E+05
  0.140136688555E+05  0.139186657154E+05  0.138003018002E+05  0.136593788697E+05  0.134968584049E+05
  0.133138456053E+05  0.131115756312E+05  0.128913967548E+05  0.126547501471E+05  0.124031526958E+05
  0.121381759289E+05  0.118614265770E+05  0.115745274576E+05  0.112790985379E+05  0.109767395659E+05
  0.106690136047E+05  0.103574326630E+05  0.100434448425E+05  0.972842291637E+04  0.941365596226E+04
  0.910034168296E+04  0.878958145992E+04  0.848237725717E+04  0.817962923770E+04  0.788213657849E+04
  0.759059832664E+04  0.730561604731E+04  0.702769753781E+04  0.675726128123E+04  0.649464168814E+04
  0.624009472050E+04  0.599380399817E+04  0.575588701595E+04  0.552640147453E+04  0.530535155539E+04
  0.509269405828E+04  0.488834432032E+04  0.469218185294E+04  0.450405564907E+04  0.432378912752E+04
  0.415118469126E+04  0.398602789084E+04  0.382809119204E+04  0.367713734790E+04  0.353292240632E+04
  0.339519832812E+04  0.326371530767E+04  0.313822372872E+04  0.301847586560E+04  0.290422729772E+04
  0.279523808468E+04  0.269127372957E+04  0.259210593713E+04  0.249751322143E+04  0.240728133812E+04
  0.232120360758E+04  0.223908111924E+04  0.216072284036E+04  0.208594562188E+04  0.201457420466E+04
  0.194644107517E+04  0.188138635807E+04  0.181925760800E+04  0.175990966068E+04  0.170320432070E+04
  0.164901018985E+04  0.159720239586E+04  0.154766231421E+04  0.150027731184E+04  0.145494050003E+04
  0.141155043607E+04  0.137001091926E+04  0.133023068948E+04  0.129212320343E+04  0.125560639216E+04
  0.122060243390E+04  0.118703753994E+04  0.115484171941E+04  0.112394860042E+04  0.109429522759E+04
  0.106582187159E+04  0.103847186304E+04  0.101219141666E+04  0.986929480091E+03  0.962637579413E+03
  0.939269676253E+03  0.916782037009E+03  0.895133098746E+03  0.874283359067E+03  0.854195249184E+03
  0.834833038832E+03  0.816162726753E+03  0.798151949072E+03  0.780769885626E+03  0.763987178509E+03
  0.747775851397E+03  0.732109225251E+03  0.716961865592E+03  0.702309490114E+03  0.688128929801E+03
  0.674398049000E+03  0.661095702506E+03  0.648201675225E+03  0.635696633539E+03  0.623562078588E+03
  0.611780298924E+03  0.600334334034E+03  0.589207926618E+03  0.578385490663E+03  0.567852075420E+03
  0.557593328588E+03  0.547595467978E+03  0.537845250654E+03  0.528329944480E+03  0.519037301483E+03
  0.509955533735E+03  0.501073288651E+03  0.492379627322E+03  0.483864002963E+03  0.475516242340E+03
  0.467326525514E+03  0.459285369196E+03  0.451383610379E+03  0.443612390115E+03  0.435963139799E+03
  0.428427566602E+03  0.420997641404E+03  0.413665586298E+03  0.406423863716E+03  0.399265165742E+03
  0.392182404637E+03  0.385168703794E+03  0.378217389231E+03  0.371321982361E+03  0.364476192569E+03
  0.357673911223E+03  0.350909205720E+03  0.344176314375E+03  0.337469642030E+03  0.330783755809E+03
  0.324113382141E+03  0.317453403558E+03  0.310798856654E+03  0.304144930432E+03  0.297486965057E+03
  0.290820451556E+03  0.284141031553E+03  0.277444498179E+03  0.270726796998E+03  0.263984028095E+03
  0.257212448227E+03  0.250408474230E+03  0.243568686320E+03  0.236689832788E+03  0.229768835061E+03
  0.222802793520E+03  0.215788994172E+03  0.208724916112E+03  0.201608240075E+03  0.194436857645E+03
  0.187208881723E+03  0.179922658188E+03  0.172576778449E+03  0.165170093834E+03  0.157701730983E+03
  0.150171109178E+03  0.142577959223E+03  0.134922344368E+03  0.127204683244E+03  0.119425775022E+03
  0.111586827033E+03  0.103689484778E+03  0.957358646435E+02  0.877285890186E+02  0.796708239910E+02
  0.715663190812E+02  0.634194485901E+02  0.552352536757E+02  0.470194838666E+02  0.387786362235E+02
  0.305199895394E+02  0.222516304646E+02  0.139824670678E+02  0.572222477712E+01 -0.251858177356E+01
 -0.107287080682E+02 -0.188962780279E+02 -0.270089286992E+02 -0.350540073650E+02 -0.430188235220E+02
 -0.508909517713E+02 -0.586585712828E+02 -0.663108118923E+02 -0.738380554607E+02 -0.812321140539E+02
 -0.884861760568E+02 -0.955943842613E+02 -0.102550898294E+03 -0.109348318087E+03 -0.115975431646E+03
 -0.122414425961E+03 -0.128637960884E+03 -0.134606852814E+03 -0.140269340376E+03 -0.145562977594E+03
 -0.150419811793E+03 -0.154774681469E+03 -0.158575422887E+03 -0.161792914489E+03 -0.164428659062E+03
 -0.166518108040E+03 -0.168128878707E+03 -0.169354009471E+03 -0.170301330027E+03 -0.171080979251E+03
 -0.171793858647E+03 -0.172523690376E+03 -0.173334002808E+03 -0.174269439264E+03 -0.175359472065E+03
 -0.176622516414E+03 -0.178069231442E+03 -0.179704710147E+03 -0.181529810949E+03 -0.183542011845E+03
 -0.185736061958E+03 -0.188104549513E+03 -0.190638400644E+03 -0.193327283983E+03 -0.196159896850E+03
 -0.199124125840E+03 -0.202207089995E+03 -0.205395083675E+03 -0.208673438793E+03 -0.212026327687E+03
 -0.215436528484E+03 -0.218885181157E+03 -0.222351573227E+03 -0.225813013178E+03 -0.229244872915E+03
 -0.232620905929E+03 -0.235913961140E+03 -0.239097193383E+03 -0.242145784153E+03 -0.245038983071E+03
 -0.247761907657E+03 -0.250305979276E+03 -0.252666241264E+03 -0.254833572987E+03 -0.256780909956E+03
 -0.258446400187E+03 -0.259722637979E+03 -0.260465800653E+03 -0.260535647487E+03 -0.259860865137E+03
 -0.258499673242E+03 -0.256645338091E+03 -0.254548005924E+03 -0.252402090252E+03 -0.250290880245E+03
 -0.248212283356E+03 -0.246132855141E+03 -0.244023583958E+03 -0.241870815778E+03 -0.239673608861E+03
 -0.237437334703E+03 -0.235168232748E+03 -0.232870323956E+03 -0.230544472397E+03 -0.228188792607E+03
 -0.225799606637E+03 -0.223372422871E+03 -0.220902695252E+03 -0.218386313610E+03 -0.215819867364E+03
 -0.213200750785E+03 -0.210527170228E+03 -0.207798097360E+03 -0.205013197210E+03 -0.202172747473E+03
 -0.199277558521E+03 -0.196328899923E+03 -0.193328435254E+03 -0.190278167217E+03 -0.187180396608E+03
 -0.184037692218E+03 -0.180852875190E+03 -0.177629014626E+03 -0.174369429022E+03 -0.171077711168E+03
 -0.167757725840E+03 -0.164413625761E+03 -0.161049844981E+03 -0.157671077461E+03 -0.154282235948E+03
 -0.150888392404E+03 -0.147494705021E+03 -0.144106340491E+03 -0.140728401631E+03 -0.137365870060E+03
 -0.134023569790E+03 -0.130706152517E+03 -0.127418098700E+03 -0.124163724471E+03 -0.120947182899E+03
 -0.117772450062E+03 -0.114643293747E+03 -0.111563227276E+03 -0.108535457495E+03 -0.105562836994E+03
 -0.102647828718E+03 -0.997924882744E+02 -0.969984632132E+02 -0.942670052795E+02 -0.915989923134E+02
 -0.889949501752E+02 -0.864550737594E+02 -0.839792416368E+02 -0.815670255753E+02 -0.792176969001E+02
 -0.769302345452E+02 -0.747033409598E+02 -0.725354720211E+02 -0.704248860756E+02 -0.683697082948E+02
 -0.663680196198E+02 -0.644179464407E+02 -0.625177508996E+02 -0.606659122418E+02 -0.588611856260E+02
 -0.571026351005E+02 -0.553896377026E+02 -0.537218590251E+02 -0.520992027846E+02 -0.505217385068E+02
 -0.489896128760E+02 -0.475029518774E+02 -0.460617626487E+02 -0.446658453912E+02
 core charge-density
  0.948608349784E-03  0.100977941992E-02  0.107488960462E-02  0.114419201131E-02  0.121795595645E-02
  0.129646799831E-02  0.138003303495E-02  0.146897547163E-02  0.156364046178E-02  0.166439522639E-02
  0.177163045642E-02  0.188576180354E-02  0.200723146468E-02  0.213650986612E-02  0.227409745333E-02
  0.242052659309E-02  0.257636359475E-02  0.274221085806E-02  0.291870915527E-02  0.310654005571E-02
  0.330642850167E-02  0.351914554471E-02  0.374551125223E-02  0.398639779465E-02  0.424273272421E-02
  0.451550245682E-02  0.480575596944E-02  0.511460872588E-02  0.544324684470E-02  0.579293152376E-02
  0.616500373687E-02  0.656088921855E-02  0.698210375418E-02  0.743025879366E-02  0.790706740747E-02
  0.841435060558E-02  0.895404404024E-02  0.952820511527E-02  0.101390205254E-01  0.107888142505E-01
  0.114800560315E-01  0.122153703548E-01  0.129975459754E-01  0.138295460079E-01  0.147145186196E-01
  0.156558083578E-01  0.166569681476E-01  0.177217719982E-01  0.188542284562E-01  0.200585948465E-01
  0.213393923460E-01  0.227014219328E-01  0.241497812607E-01  0.256898825057E-01  0.273274712396E-01
  0.290686463810E-01  0.309198812836E-01  0.328880460176E-01  0.349804309078E-01  0.372047713900E-01
  0.395692742533E-01  0.420826453360E-01  0.447541187466E-01  0.475934876838E-01  0.506111369303E-01
  0.538180771007E-01  0.572259807220E-01  0.608472202326E-01  0.646949079814E-01  0.687829383175E-01
  0.731260318572E-01  0.777397820197E-01  0.826407039229E-01  0.878462857330E-01  0.933750425601E-01
  0.992465729946E-01  0.105481618378E+00  0.112102124898E+00  0.119131308610E+00  0.126593723452E+00
  0.134515332369E+00  0.142923581602E+00  0.151847478245E+00  0.161317671112E+00  0.171366535016E+00
  0.182028258480E+00  0.193338934958E+00  0.205336657575E+00  0.218061617431E+00  0.231556205453E+00
  0.245865117805E+00  0.261035464801E+00  0.277116883290E+00  0.294161652413E+00  0.312224812629E+00
  0.331364287874E+00  0.351641010659E+00  0.373119049908E+00  0.395865741248E+00  0.419951819466E+00
  0.445451552732E+00  0.472442878194E+00  0.501007538426E+00  0.531231218171E+00  0.563203680744E+00
  0.597018903346E+00  0.632775210488E+00  0.670575404588E+00  0.710526892706E+00  0.752741808289E+00
  0.797337126623E+00  0.844434772612E+00  0.894161719301E+00  0.946650075468E+00  0.100203716039E+01
  0.106046556375E+01  0.112208318847E+01  0.118704327404E+01  0.125550439772E+01  0.132763045085E+01
  0.140359058712E+01  0.148355913966E+01  0.156771550334E+01  0.165624397867E+01  0.174933357322E+01
  0.184717775645E+01  0.194997416354E+01  0.205792424340E+01  0.217123284622E+01  0.229010774525E+01
  0.241475908771E+01  0.254539876923E+01  0.268223972636E+01  0.282549514142E+01  0.297537755386E+01
  0.313209787250E+01  0.329586428278E+01  0.346688104356E+01  0.364534716786E+01  0.383145498262E+01
  0.402538856257E+01  0.422732203398E+01  0.443741774481E+01  0.465582429824E+01  0.488267444776E+01
  0.511808285313E+01  0.536214369750E+01  0.561492816795E+01  0.587648180310E+01  0.614682171353E+01
  0.642593368300E+01  0.671376916094E+01  0.701024215936E+01  0.731522607053E+01  0.762855042503E+01
  0.794999761326E+01  0.827929959772E+01  0.861613464723E+01  0.896012412881E+01  0.931082939771E+01
  0.966774883062E+01  0.100303150524E+02  0.103978924114E+02  0.107697747642E+02  0.111451836342E+02
  0.115232668152E+02  0.119030974942E+02  0.122836739724E+02  0.126639200665E+02  0.130426862763E+02
  0.134187518050E+02  0.137908275201E+02  0.141575599424E+02  0.145175363490E+02  0.148692910691E+02
  0.152113130510E+02  0.155420547644E+02  0.158599424954E+02  0.161633880763E+02  0.164508020759E+02
  0.167206084563E+02  0.169712606793E+02  0.172012592198E+02  0.174091704121E+02  0.175936465242E+02
  0.177534469171E+02  0.178874601089E+02  0.179947265201E+02  0.180744616354E+02  0.181260792701E+02
  0.181492145860E+02  0.181437464563E+02  0.181098187371E+02  0.180478599618E+02  0.179586009409E+02
  0.178430897207E+02  0.177027033316E+02  0.175391557483E+02  0.173545014799E+02  0.171511342261E+02
  0.169317800593E+02  0.166994846401E+02  0.164575940365E+02  0.162097287938E+02  0.159597510090E+02
  0.157117242760E+02  0.154698665078E+02  0.152384957957E+02  0.150219696285E+02  0.148246179753E+02
  0.146506709191E+02  0.145041817113E+02  0.143889463165E+02  0.143084206898E+02  0.142656372022E+02
  0.142631218423E+02  0.143028139570E+02  0.143859904669E+02  0.145131966248E+02  0.146841854732E+02
  0.148978682008E+02  0.151522775610E+02  0.154445464107E+02  0.157709032213E+02  0.161266861218E+02
  0.165063766435E+02  0.169036538957E+02  0.173114694400E+02  0.177221426720E+02  0.181274760595E+02
  0.185188890942E+02  0.188875692767E+02  0.192246378802E+02  0.195213276498E+02  0.197691690300E+02
  0.199601810055E+02  0.200870621989E+02  0.201433775297E+02  0.201237354921E+02  0.200239509902E+02
  0.198411886673E+02  0.195740818160E+02  0.192228222492E+02  0.187892169701E+02  0.182767080954E+02
  0.176903532741E+02  0.170367647831E+02  0.163240065785E+02  0.155614498025E+02  0.147595885825E+02
  0.139298193657E+02  0.130841884670E+02  0.122351139125E+02  0.113950889655E+02  0.105763758316E+02
  0.979069887002E+01  0.904894708139E+01  0.836089560756E+01  0.773495539580E+01  0.717795916782E+01
  0.669499009821E+01  0.628925820297E+01  0.596202826869E+01  0.571260166019E+01  0.553835555217E+01
  0.543484243285E+01  0.539595210467E+01  0.541413374502E+01  0.548066692121E+01  0.558596324945E+01
  0.571988107171E+01  0.587204172216E+01  0.603214025734E+01  0.619024365196E+01  0.633706803352E+01
  0.646422579704E+01  0.656443391800E+01  0.663167625822E+01  0.666131486521E+01  0.665014789281E+01
  0.659641450766E+01  0.649974970636E+01  0.636109415366E+01  0.618256585775E+01  0.596730167760E+01
  0.571927730882E+01  0.544311454765E+01  0.514388434025E+01  0.482691345156E+01  0.449760162123E+01
  0.416125489826E+01  0.382293953541E+01  0.348735954036E+01  0.315875961559E+01  0.284085394969E+01
  0.253678045725E+01  0.224907892063E+01  0.197969080951E+01  0.172997824756E+01  0.150075872754E+01
  0.129235229687E+01  0.110463810891E+01  0.937116877328E+00  0.788976251847E+00  0.659156390355E+00
  0.546413384217E+00  0.449378621453E+00  0.366612621037E+00  0.296652317438E+00  0.238051196731E+00
  0.189412066790E+00  0.149412572318E+00  0.116823833331E+00  0.905227911227E-01  0.694989899890E-01
  0.528566105419E-01  0.398126072914E-01  0.296917963429E-01  0.219196963563E-01  0.160138553459E-01
  0.115743058589E-01  0.827368959632E-02  0.584748715577E-02  0.408468558885E-02  0.281912084759E-02
  0.192164735202E-02  0.129321484468E-02  0.858874178421E-03  0.562688519879E-03  0.363493747097E-03
  0.231430203581E-03  0.145155791874E-03  0.896458754322E-04  0.544868453979E-04  0.325758435036E-04
  0.191475384080E-04  0.110587822176E-04  0.627242386687E-05  0.349177527044E-05  0.190669325442E-05
  0.102063632813E-05  0.535228481156E-06  0.274787735524E-06  0.138021315720E-06  0.677757821758E-07
  0.325131367540E-07  0.152251877780E-07  0.695402486878E-08  0.309539967420E-08
 kinetic energy-density
  0.974008090154E+03  0.979230964230E+03  0.984673664801E+03  0.990343518455E+03  0.996248162569E+03
  0.100239555576E+04  0.100879399802E+04  0.101545216094E+04  0.102237910331E+04  0.102958430982E+04
  0.103707769418E+04  0.104486965717E+04  0.105297107613E+04  0.106139338402E+04  0.107014856038E+04
  0.107924917902E+04  0.108870845309E+04  0.109854024549E+04  0.110875912588E+04  0.111938039726E+04
  0.113042013364E+04  0.114189522005E+04  0.115382339778E+04  0.116622329730E+04  0.117911448592E+04
  0.119251751141E+04  0.120645395098E+04  0.122094645208E+04  0.123601879268E+04  0.125169592801E+04
  0.126800404688E+04  0.128497064003E+04  0.130262454249E+04  0.132099601731E+04  0.134011682570E+04
  0.136002028920E+04  0.138074137362E+04  0.140231677480E+04  0.142478500620E+04  0.144818648913E+04
  0.147256365548E+04  0.149796105236E+04  0.152442545260E+04  0.155200597450E+04  0.158075420637E+04
  0.161072433945E+04  0.164197330816E+04  0.167456093882E+04  0.170855010618E+04  0.174400689995E+04
  0.178100079960E+04  0.181960485947E+04  0.185989590485E+04  0.190195473680E+04  0.194586635161E+04
  0.199172016886E+04  0.203961027374E+04  0.208963567319E+04  0.214190056272E+04  0.219651461188E+04
  0.225359326065E+04  0.231325803586E+04  0.237563687956E+04  0.244086449889E+04  0.250908273144E+04
  0.258044093065E+04  0.265509636913E+04  0.273321467230E+04  0.281497024922E+04  0.290054678251E+04
  0.299013770470E+04  0.308394672814E+04  0.318218837429E+04  0.328508856244E+04  0.339288518809E+04
  0.350582875287E+04  0.362418302445E+04  0.374822571813E+04  0.387824920528E+04  0.401456127567E+04
  0.415748590197E+04  0.430736406247E+04  0.446455459125E+04  0.462943506406E+04  0.480240271005E+04
  0.498387537727E+04  0.517429252525E+04  0.537411625810E+04  0.558383238740E+04  0.580395154962E+04
  0.603501034004E+04  0.627757250494E+04  0.653223015054E+04  0.679960500080E+04  0.708034968652E+04
  0.737514906320E+04  0.768472156430E+04  0.800982057832E+04  0.835123585745E+04  0.870979494199E+04
  0.908636460448E+04  0.948185231034E+04  0.989720768473E+04  0.103334239748E+05  0.107915395196E+05
  0.112726391938E+05  0.117778558415E+05  0.123083716602E+05  0.128654195699E+05  0.134502844901E+05
  0.140643045855E+05  0.147088723888E+05  0.153854358567E+05  0.160954992841E+05  0.168406240824E+05
  0.176224293942E+05  0.184425925309E+05  0.193028491877E+05  0.202049934072E+05  0.211508773042E+05
  0.221424104481E+05  0.231815589242E+05  0.242703440112E+05  0.254108404499E+05  0.266051742192E+05
  0.278555198430E+05  0.291640971076E+05  0.305331671856E+05  0.319650280924E+05  0.334620094253E+05
  0.350264663288E+05  0.366607726095E+05  0.383673129691E+05  0.401484742520E+05  0.420066356880E+05
  0.439441580149E+05  0.459633714608E+05  0.480665624913E+05  0.502559592700E+05  0.525337157693E+05
  0.549018944759E+05  0.573624476299E+05  0.599171969655E+05  0.625678118889E+05  0.653157860929E+05
  0.681624125562E+05  0.711087569443E+05  0.741556294015E+05  0.773035547683E+05  0.805527412537E+05
  0.839030476411E+05  0.873539491188E+05  0.909045017992E+05  0.945533061790E+05  0.982984695838E+05
  0.102137567922E+06  0.106067606959E+06  0.110084983343E+06  0.114185445880E+06  0.118364057210E+06
  0.122615156553E+06  0.126932323817E+06  0.131308345704E+06  0.135735184338E+06  0.140203949076E+06
  0.144704872162E+06  0.149227288950E+06  0.153759623439E+06  0.158289379984E+06  0.162803141921E+06
  0.167286578041E+06  0.171724457733E+06  0.176100675665E+06  0.180398286869E+06  0.184599553044E+06
  0.188686000836E+06  0.192638492832E+06  0.196437311856E+06  0.200062259108E+06  0.203492766468E+06
  0.206708023241E+06  0.209687117297E+06  0.212409190455E+06  0.214853607661E+06  0.217000139237E+06
  0.218829155252E+06  0.220321830634E+06  0.221460359458E+06  0.222228176361E+06  0.222610182792E+06
  0.222592975372E+06  0.222165073358E+06  0.221317141805E+06  0.220042206799E+06  0.218335858779E+06
  0.216196439819E+06  0.213625210561E+06  0.210626492386E+06  0.207207780497E+06  0.203379823636E+06
  0.199156666440E+06  0.194555650830E+06  0.189597373294E+06  0.184305595649E+06  0.178707107619E+06
  0.172831540536E+06  0.166711132466E+06  0.160380446149E+06  0.153876042187E+06  0.147236110848E+06
  0.140500066666E+06  0.133708111307E+06  0.126900765096E+06  0.120118384756E+06  0.113400657546E+06
  0.106786091549E+06  0.100311506760E+06  0.940115395881E+05  0.879181744241E+05  0.820603165447E+05
  0.764634194556E+05  0.711491770773E+05  0.661352876366E+05  0.614352926521E+05  0.570584915466E+05
  0.530099303732E+05  0.492904619235E+05  0.458968739182E+05  0.428220818224E+05  0.400553825843E+05
  0.375827650110E+05  0.353872714222E+05  0.334494039242E+05  0.317475672079E+05  0.302585386392E+05
  0.289579554508E+05  0.278208084172E+05  0.268219312652E+05  0.259364754083E+05  0.251403602103E+05
  0.244106898695E+05  0.237261291134E+05  0.230672311032E+05  0.224167122125E+05  0.217596696725E+05
  0.210837393270E+05  0.203791919665E+05  0.196389678720E+05  0.188586502451E+05  0.180363792390E+05
  0.171727092707E+05  0.162704133685E+05  0.153342394518E+05  0.143706248847E+05  0.133873773406E+05
  0.123933320130E+05  0.113979972539E+05  0.104112023011E+05  0.944276131721E+04  0.850216358791E+04
  0.759829920701E+04  0.673921230891E+04  0.593187823395E+04  0.518200185991E+04  0.449384583896E+04
  0.387012368648E+04  0.331198879890E+04  0.281912974550E+04  0.238994055443E+04  0.202171193345E+04
  0.171081036681E+04  0.145284737568E+04  0.124285259846E+04  0.107545510626E+04  0.945067500445E+03
  0.846064132017E+03  0.772945655415E+03  0.720483974069E+03  0.683843244655E+03  0.658673994102E+03
  0.641178788489E+03  0.628149378014E+03  0.616976731554E+03  0.605636695826E+03  0.592655050661E+03
  0.577056384773E+03  0.558301491885E+03  0.536217938840E+03  0.510928072557E+03  0.482778208779E+03
  0.452272016477E+03  0.420010416002E+03  0.386639282959E+03  0.352806386189E+03  0.319126968781E+03
  0.286158330618E+03  0.254382512098E+03  0.224196309442E+03  0.195906968454E+03  0.169733929829E+03
  0.145813453318E+03  0.124206613082E+03  0.104909053968E+03  0.878617646956E+02  0.729621499456E+02
  0.600748222933E+02  0.490416715760E+02  0.396908984797E+02  0.318448165987E+02  0.253263298449E+02
  0.199640774993E+02  0.155963063431E+02  0.120735781003E+02  0.926045218505E+01  0.703630059562E+01
  0.529541642180E+01  0.394657285642E+01  0.291217832764E+01  0.212715772641E+01  0.153767145554E+01
  0.109976457153E+01  0.778018872722E+00  0.544262328826E+00  0.376373566267E+00  0.257204736675E+00
  0.173634255633E+00  0.115751669159E+00  0.761700986514E-01  0.494570706061E-01  0.316717013154E-01
  0.199948212534E-01  0.124383428271E-01  0.762068825654E-02  0.459613554825E-02  0.272729152446E-02
  0.159139048827E-02  0.912616262525E-03  0.514066350810E-03  0.284260348934E-03  0.154212318909E-03
  0.820274831429E-04  0.427524103227E-04  0.218190896271E-04  0.108965956968E-04  0.532126677133E-05
  0.253915022198E-05  0.118297788405E-05  0.537689141593E-06  0.238226084457E-06
 mkinetic energy-density pseudized
  0.113973275586E-05  0.121506042716E-05  0.129536668488E-05  0.138098057573E-05  0.147225289391E-05
  0.156955761844E-05  0.167329344552E-05  0.178388542212E-05  0.190178668760E-05  0.202748033036E-05
  0.216148136730E-05  0.230433885400E-05  0.245663813443E-05  0.261900323937E-05  0.279209944326E-05
  0.297663599013E-05  0.317336899965E-05  0.338310456523E-05  0.360670205693E-05  0.384507764263E-05
  0.409920804193E-05  0.437013452816E-05  0.465896719490E-05  0.496688950445E-05  0.529516313696E-05
  0.564513316004E-05  0.601823354001E-05  0.641599301744E-05  0.684004137101E-05  0.729211609537E-05
  0.777406952029E-05  0.828787640044E-05  0.883564200671E-05  0.941961075236E-05  0.100421753892E-04
  0.107058868118E-04  0.114134645092E-04  0.121678077081E-04  0.129720072519E-04  0.138293582650E-04
  0.147433736546E-04  0.157177985041E-04  0.167566254181E-04  0.178641108822E-04  0.190447927029E-04
  0.203035086010E-04  0.216454160337E-04  0.230760133265E-04  0.246011622021E-04  0.262271117982E-04
  0.279605242724E-04  0.298085021001E-04  0.317786171753E-04  0.338789418363E-04  0.361180819408E-04
  0.385052121275E-04  0.410501134077E-04  0.437632132425E-04  0.466556282675E-04  0.497392098420E-04
  0.530265926084E-04  0.565312462612E-04  0.602675307373E-04  0.642507550538E-04  0.684972400348E-04
  0.730243851838E-04  0.778507399759E-04  0.829960798613E-04  0.884814872929E-04  0.943294381084E-04
  0.100563893622E-03  0.107210398800E-03  0.114296186934E-03  0.121850291216E-03  0.129903663703E-03
  0.138489302139E-03  0.147642385153E-03  0.157400416400E-03  0.167803378227E-03  0.178893895492E-03
  0.190717410209E-03  0.203322367742E-03  0.216760415299E-03  0.231086613544E-03  0.246359662199E-03
  0.262642140550E-03  0.280000763856E-03  0.298506656695E-03  0.318235644383E-03  0.339268563645E-03
  0.361691593825E-03  0.385596609984E-03  0.411081559328E-03  0.438250862518E-03  0.467215841505E-03
  0.498095175632E-03  0.531015387885E-03  0.566111363272E-03  0.603526901469E-03  0.643415305983E-03
  0.685940012246E-03  0.731275257226E-03  0.779606793285E-03  0.831132649209E-03  0.886063941532E-03
  0.944625739481E-03  0.100705798707E-02  0.107361648612E-02  0.114457394428E-02  0.122022109224E-02
  0.130086787481E-02  0.138684472071E-02  0.147850389624E-02  0.157622094840E-02  0.168039624339E-02
  0.179145660672E-02  0.190985707177E-02  0.203608274380E-02  0.217065078715E-02  0.231411254371E-02
  0.246705579145E-02  0.263010715203E-02  0.280393465756E-02  0.298925048689E-02  0.318681388269E-02
  0.339743426124E-02  0.362197452757E-02  0.386135460968E-02  0.411655522617E-02  0.438862190268E-02
  0.467866925368E-02  0.498788554699E-02  0.531753756979E-02  0.566897581590E-02  0.604364001573E-02
  0.644306503122E-02  0.686888714015E-02  0.732285073519E-02  0.780681546541E-02  0.832276384900E-02
  0.887280938867E-02  0.945920522254E-02  0.100843533461E-01  0.107508144425E-01  0.114613183616E-01
  0.122187752908E-01  0.130262876616E-01  0.138871628428E-01  0.148049266702E-01  0.157833378686E-01
  0.168264034241E-01  0.179383949711E-01  0.191238662577E-01  0.203876717632E-01  0.217349865418E-01
  0.231713273730E-01  0.247025753059E-01  0.263349996865E-01  0.280752837675E-01  0.299305520031E-01
  0.319083991390E-01  0.340169212163E-01  0.362647486127E-01  0.386610812562E-01  0.412157261513E-01
  0.439391373702E-01  0.468424586688E-01  0.499375688982E-01  0.532371303958E-01  0.567546405463E-01
  0.605044867216E-01  0.645020048174E-01  0.687635416198E-01  0.733065212488E-01  0.781495159445E-01
  0.833123214734E-01  0.888160374545E-01  0.946831529197E-01  0.100937637447E+00  0.107605038219E+00
  0.114712583393E+00  0.122289292172E+00  0.130366092022E+00  0.138975943468E+00  0.148153972962E+00
  0.157937614330E+00  0.168366759329E+00  0.179483917897E+00  0.191334388688E+00  0.203966440541E+00
  0.217431505555E+00  0.231784384478E+00  0.247083465181E+00  0.263390954991E+00  0.280773127746E+00
  0.299300586434E+00  0.319048542361E+00  0.340097111828E+00  0.362531631333E+00  0.386442992393E+00
  0.411927997096E+00  0.439089735593E+00  0.468037986736E+00  0.498889643174E+00  0.531769162232E+00
  0.566809043977E+00  0.604150337899E+00  0.643943179714E+00  0.686347359804E+00  0.731532924887E+00
  0.779680814508E+00  0.830983533999E+00  0.885645865557E+00  0.943885619108E+00  0.100593442461E+01
  0.107203856743E+01  0.114245986843E+01  0.121747661023E+01  0.129738451120E+01  0.138249774841E+01
  0.147315003085E+01  0.156969572381E+01  0.167251102522E+01  0.178199519443E+01  0.189857183351E+01
  0.202269022075E+01  0.215482669549E+01  0.229548609287E+01  0.244520322635E+01  0.260454441484E+01
  0.277410905057E+01  0.295453120246E+01  0.314648124853E+01  0.335066752920E+01  0.356783801180E+01
  0.379878195427E+01  0.404433155392E+01  0.430536356427E+01  0.458280086017E+01  0.487761392759E+01
  0.519082225086E+01  0.552349556557E+01  0.587675494026E+01  0.625177364447E+01  0.664977775445E+01
  0.707204644056E+01  0.751991187272E+01  0.799475867127E+01  0.849802282108E+01  0.903118995579E+01
  0.959579290746E+01  0.101934084037E+02  0.108256527806E+02  0.114941765640E+02  0.122006577558E+02
  0.129467936438E+02  0.137342909351E+02  0.145648539939E+02  0.154401709429E+02  0.163618973696E+02
  0.173316373526E+02  0.183509215099E+02  0.194211817443E+02  0.205437223503E+02  0.217196871275E+02
  0.229500221397E+02  0.242354337517E+02  0.255763415851E+02  0.269728260428E+02  0.284245700879E+02
  0.299307950038E+02  0.314901899307E+02  0.331008350679E+02  0.347601185544E+02  0.364646472052E+02
  0.382101514847E+02  0.399913853639E+02  0.418020220227E+02  0.436345467560E+02  0.454801489081E+02
  0.473286152184E+02  0.491682276165E+02  0.509856692555E+02  0.527659434394E+02  0.544923110575E+02
  0.561462532104E+02  0.577074668483E+02  0.591539024501E+02  0.604618539806E+02  0.616061125279E+02
  0.625601960551E+02  0.632966684764E+02  0.637875616453E+02  0.640049136188E+02  0.639214354997E+02
  0.635113169604E+02  0.627511768667E+02  0.616211598454E+02  0.601061717274E+02  0.581972360687E+02
  0.558929399353E+02  0.532009194048E+02  0.501393134863E+02  0.467380893041E+02  0.430401116968E+02
  0.391017976385E+02  0.349931616362E+02  0.307970250110E+02  0.266071335542E+02  0.225249098602E+02
  0.186545659278E+02  0.150963277156E+02  0.119375876025E+02  0.924191632108E+01  0.703604709621E+01
  0.529541642180E+01  0.394657285642E+01  0.291217832764E+01  0.212715772641E+01  0.153767145554E+01
  0.109976457153E+01  0.778018872722E+00  0.544262328826E+00  0.376373566267E+00  0.257204736675E+00
  0.173634255633E+00  0.115751669159E+00  0.761700986514E-01  0.494570706061E-01  0.316717013154E-01
  0.199948212534E-01  0.124383428271E-01  0.762068825654E-02  0.459613554825E-02  0.272729152446E-02
  0.159139048827E-02  0.912616262525E-03  0.514066350810E-03  0.284260348934E-03  0.154212318909E-03
  0.820274831429E-04  0.427524103227E-04  0.218190896271E-04  0.108965956968E-04  0.532126677133E-05
  0.253915022198E-05  0.118297788405E-05  0.537689141593E-06  0.238226084457E-06
 local pseudopotential core
 -0.415476525610E+03 -0.415477761125E+03 -0.415478957721E+03 -0.415480116623E+03 -0.415481239016E+03
 -0.415482326051E+03 -0.415483378841E+03 -0.415484398461E+03 -0.415485385958E+03 -0.415486342341E+03
 -0.415487268589E+03 -0.415488165651E+03 -0.415489034444E+03 -0.415489875858E+03 -0.415490690753E+03
 -0.415491479965E+03 -0.415492244300E+03 -0.415492984540E+03 -0.415493701443E+03 -0.415494395742E+03
 -0.415495068146E+03 -0.415495719344E+03 -0.415496350002E+03 -0.415496960764E+03 -0.415497552255E+03
 -0.415498125079E+03 -0.415498679821E+03 -0.415499217049E+03 -0.415499737311E+03 -0.415500241138E+03
 -0.415500729044E+03 -0.415501201527E+03 -0.415501659070E+03 -0.415502102138E+03 -0.415502531184E+03
 -0.415502946644E+03 -0.415503348942E+03 -0.415503738486E+03 -0.415504115673E+03 -0.415504480887E+03
 -0.415504834497E+03 -0.415505176863E+03 -0.415505508332E+03 -0.415505829239E+03 -0.415506139909E+03
 -0.415506440655E+03 -0.415506731782E+03 -0.415507013581E+03 -0.415507286337E+03 -0.415507550323E+03
 -0.415507805803E+03 -0.415508053032E+03 -0.415508292257E+03 -0.415508523716E+03 -0.415508747637E+03
 -0.415508964242E+03 -0.415509173743E+03 -0.415509376347E+03 -0.415509572249E+03 -0.415509761640E+03
 -0.415509944703E+03 -0.415510121612E+03 -0.415510292537E+03 -0.415510457637E+03 -0.415510617068E+03
 -0.415510770976E+03 -0.415510919503E+03 -0.415511062782E+03 -0.415511200942E+03 -0.415511334103E+03
 -0.415511462381E+03 -0.415511585882E+03 -0.415511704709E+03 -0.415511818958E+03 -0.415511928717E+03
 -0.415512034069E+03 -0.415512135090E+03 -0.415512231848E+03 -0.415512324408E+03 -0.415512412824E+03
 -0.415512497147E+03 -0.415512577419E+03 -0.415512653675E+03 -0.415512725943E+03 -0.415512794245E+03
 -0.415512858592E+03 -0.415512918991E+03 -0.415512975439E+03 -0.415513027925E+03 -0.415513076429E+03
 -0.415513120923E+03 -0.415513161369E+03 -0.415513197719E+03 -0.415513229917E+03 -0.415513257893E+03
 -0.415513281570E+03 -0.415513300856E+03 -0.415513315649E+03 -0.415513325833E+03 -0.415513331281E+03
 -0.415513331848E+03 -0.415513327378E+03 -0.415513317698E+03 -0.415513302618E+03 -0.415513281931E+03
 -0.415513255411E+03 -0.415513222814E+03 -0.415513183875E+03 -0.415513138305E+03 -0.415513085795E+03
 -0.415513026010E+03 -0.415512958588E+03 -0.415512883142E+03 -0.415512799252E+03 -0.415512706470E+03
 -0.415512604314E+03 -0.415512492265E+03 -0.415512369770E+03 -0.415512236234E+03 -0.415512091019E+03
 -0.415511933443E+03 -0.415511762777E+03 -0.415511578240E+03 -0.415511378997E+03 -0.415511164154E+03
 -0.415510932757E+03 -0.415510683787E+03 -0.415510416154E+03 -0.415510128694E+03 -0.415509820163E+03
 -0.415509489235E+03 -0.415509134492E+03 -0.415508754422E+03 -0.415508347411E+03 -0.415507911734E+03
 -0.415507445553E+03 -0.415506946906E+03 -0.415506413700E+03 -0.415505843701E+03 -0.415505234526E+03
 -0.415504583634E+03 -0.415503888313E+03 -0.415503145671E+03 -0.415502352626E+03 -0.415501505886E+03
 -0.415500601944E+03 -0.415499637059E+03 -0.415498607241E+03 -0.415497508236E+03 -0.415496335507E+03
 -0.415495084216E+03 -0.415493749204E+03 -0.415492324973E+03 -0.415490805656E+03 -0.415489185001E+03
 -0.415487456341E+03 -0.415485612566E+03 -0.415483646098E+03 -0.415481548855E+03 -0.415479312222E+03
 -0.415476927014E+03 -0.415474383436E+03 -0.415471671048E+03 -0.415468778719E+03 -0.415465694581E+03
 -0.415462405983E+03 -0.415458899435E+03 -0.415455160559E+03 -0.415451174023E+03 -0.415446923485E+03
 -0.415442391522E+03 -0.415437559559E+03 -0.415432407796E+03 -0.415426915122E+03 -0.415421059034E+03
 -0.415414815543E+03 -0.415408159075E+03 -0.415401062368E+03 -0.415393496360E+03 -0.415385430069E+03
 -0.415376830471E+03 -0.415367662360E+03 -0.415357888208E+03 -0.415347468012E+03 -0.415336359127E+03
 -0.415324516097E+03 -0.415311890469E+03 -0.415298430593E+03 -0.415284081415E+03 -0.415268784251E+03
 -0.415252476550E+03 -0.415235091641E+03 -0.415216558457E+03 -0.415196801255E+03 -0.415175739300E+03
 -0.415153286546E+03 -0.415129351281E+03 -0.415103835761E+03 -0.415076635814E+03 -0.415047640414E+03
 -0.415016731243E+03 -0.414983782205E+03 -0.414948658923E+03 -0.414911218200E+03 -0.414871307440E+03
 -0.414828764039E+03 -0.414783414734E+03 -0.414735074908E+03 -0.414683547856E+03 -0.414628624001E+03
 -0.414570080058E+03 -0.414507678151E+03 -0.414441164870E+03 -0.414370270268E+03 -0.414294706800E+03
 -0.414214168193E+03 -0.414128328242E+03 -0.414036839538E+03 -0.413939332115E+03 -0.413835412011E+03
 -0.413724659750E+03 -0.413606628718E+03 -0.413480843457E+03 -0.413346797845E+03 -0.413203953176E+03
 -0.413051736120E+03 -0.412889536567E+03 -0.412716705354E+03 -0.412532551844E+03 -0.412336341387E+03
 -0.412127292629E+03 -0.411904574671E+03 -0.411667304082E+03 -0.411414541746E+03 -0.411145289540E+03
 -0.410858486855E+03 -0.410553006922E+03 -0.410227652975E+03 -0.409881154220E+03 -0.409512161617E+03
 -0.409119243480E+03 -0.408700880876E+03 -0.408255462843E+03 -0.407781281418E+03 -0.407276526474E+03
 -0.406739280392E+03 -0.406167512552E+03 -0.405559073673E+03 -0.404911690015E+03 -0.404222957449E+03
 -0.403490335437E+03 -0.402711140943E+03 -0.401882542311E+03 -0.401001553145E+03 -0.400065026266E+03
 -0.399069647765E+03 -0.398011931265E+03 -0.396888212430E+03 -0.395694643845E+03 -0.394427190351E+03
 -0.393081624960E+03 -0.391653525494E+03 -0.390138272079E+03 -0.388531045699E+03 -0.386826827962E+03
 -0.385020402335E+03 -0.383106357050E+03 -0.381079089975E+03 -0.378932815714E+03 -0.376661575278E+03
 -0.374259248659E+03 -0.371719570692E+03 -0.369036150609E+03 -0.366202495725E+03 -0.363212039723E+03
 -0.360058176042E+03 -0.356734296877E+03 -0.353233838368E+03 -0.349550332538E+03 -0.345677466579E+03
 -0.341609150128E+03 -0.337339591141E+03 -0.332863381039E+03 -0.328175589789E+03 -0.323271871586E+03
 -0.318148581820E+03 -0.312802905999E+03 -0.307233001259E+03 -0.301438151013E+03 -0.295418933105E+03
 -0.289177401406E+03 -0.282717279995E+03 -0.276044167450E+03 -0.269165745670E+03 -0.262091981868E+03
 -0.254835301684E+03 -0.247410692424E+03 -0.239835663192E+03 -0.232129938644E+03 -0.224375732889E+03
 -0.216946360156E+03 -0.209887158830E+03 -0.203174872279E+03 -0.196776765244E+03 -0.190650244932E+03
 -0.184748762932E+03 -0.179036429758E+03 -0.173507890166E+03 -0.168194845733E+03 -0.163109224310E+03
 -0.158076404472E+03 -0.152660666860E+03 -0.146675766795E+03 -0.142070297029E+03 -0.137689893364E+03
 -0.133431772040E+03 -0.129307457051E+03 -0.125302292317E+03 -0.121396202470E+03 -0.117571368070E+03
 -0.113864210152E+03 -0.110276859905E+03 -0.106802916195E+03 -0.103438682017E+03 -0.100180610863E+03
 -0.970252936921E+02 -0.939694479235E+02 -0.910099082190E+02 -0.881436190433E+02 -0.853676282563E+02
 -0.826790817068E+02 -0.800752186338E+02 -0.775533675849E+02 -0.751109423158E+02 -0.727454399457E+02
 -0.704544372184E+02 -0.682355869636E+02 -0.660866163734E+02 -0.640053244228E+02 -0.619895795114E+02
 -0.600373172239E+02 -0.581465382081E+02 -0.563153060976E+02 -0.545417455494E+02 -0.528240402740E+02
 -0.511604312183E+02 -0.495492147327E+02 -0.479887408298E+02 -0.464774114908E+02
 pspotential valence only
 -0.266478336411E+03 -0.266479571965E+03 -0.266480768602E+03 -0.266481927549E+03 -0.266483049990E+03
 -0.266484137076E+03 -0.266485189919E+03 -0.266486209597E+03 -0.266487197155E+03 -0.266488153603E+03
 -0.266489079921E+03 -0.266489977057E+03 -0.266490845929E+03 -0.266491687428E+03 -0.266492502414E+03
 -0.266493291721E+03 -0.266494056159E+03 -0.266494796508E+03 -0.266495513527E+03 -0.266496207949E+03
 -0.266496880486E+03 -0.266497531825E+03 -0.266498162633E+03 -0.266498773556E+03 -0.266499365217E+03
 -0.266499938223E+03 -0.266500493159E+03 -0.266501030594E+03 -0.266501551076E+03 -0.266502055138E+03
 -0.266502543295E+03 -0.266503016046E+03 -0.266503473874E+03 -0.266503917246E+03 -0.266504346616E+03
 -0.266504762421E+03 -0.266505165086E+03 -0.266505555023E+03 -0.266505932629E+03 -0.266506298288E+03
 -0.266506652374E+03 -0.266506995247E+03 -0.266507327256E+03 -0.266507648739E+03 -0.266507960023E+03
 -0.266508261424E+03 -0.266508553249E+03 -0.266508835792E+03 -0.266509109341E+03 -0.266509374173E+03
 -0.266509630554E+03 -0.266509878745E+03 -0.266510118995E+03 -0.266510351546E+03 -0.266510576632E+03
 -0.266510794479E+03 -0.266511005304E+03 -0.266511209318E+03 -0.266511406725E+03 -0.266511597721E+03
 -0.266511782493E+03 -0.266511961226E+03 -0.266512134093E+03 -0.266512301266E+03 -0.266512462905E+03
 -0.266512619168E+03 -0.266512770205E+03 -0.266512916162E+03 -0.266513057175E+03 -0.266513193378E+03
 -0.266513324898E+03 -0.266513451857E+03 -0.266513574370E+03 -0.266513692548E+03 -0.266513806496E+03
 -0.266513916314E+03 -0.266514022096E+03 -0.266514123930E+03 -0.266514221901E+03 -0.266514316086E+03
 -0.266514406559E+03 -0.266514493388E+03 -0.266514576634E+03 -0.266514656354E+03 -0.266514732600E+03
 -0.266514805417E+03 -0.266514874845E+03 -0.266514940919E+03 -0.266515003667E+03 -0.266515063112E+03
 -0.266515119269E+03 -0.266515172150E+03 -0.266515221757E+03 -0.266515268087E+03 -0.266515311130E+03
 -0.266515350869E+03 -0.266515387279E+03 -0.266515420327E+03 -0.266515449974E+03 -0.266515476170E+03
 -0.266515498857E+03 -0.266515517969E+03 -0.266515533430E+03 -0.266515545151E+03 -0.266515553038E+03
 -0.266515556980E+03 -0.266515556858E+03 -0.266515552540E+03 -0.266515543881E+03 -0.266515530720E+03
 -0.266515512885E+03 -0.266515490186E+03 -0.266515462417E+03 -0.266515429357E+03 -0.266515390764E+03
 -0.266515346378E+03 -0.266515295918E+03 -0.266515239082E+03 -0.266515175544E+03 -0.266515104954E+03
 -0.266515026935E+03 -0.266514941084E+03 -0.266514846968E+03 -0.266514744121E+03 -0.266514632046E+03
 -0.266514510210E+03 -0.266514378041E+03 -0.266514234928E+03 -0.266514080218E+03 -0.266513913212E+03
 -0.266513733161E+03 -0.266513539268E+03 -0.266513330678E+03 -0.266513106480E+03 -0.266512865700E+03
 -0.266512607296E+03 -0.266512330159E+03 -0.266512033102E+03 -0.266511714859E+03 -0.266511374080E+03
 -0.266511009322E+03 -0.266510619046E+03 -0.266510201611E+03 -0.266509755264E+03 -0.266509278137E+03
 -0.266508768236E+03 -0.266508223434E+03 -0.266507641462E+03 -0.266507019902E+03 -0.266506356172E+03
 -0.266505647521E+03 -0.266504891012E+03 -0.266504083516E+03 -0.266503221694E+03 -0.266502301988E+03
 -0.266501320602E+03 -0.266500273488E+03 -0.266499156331E+03 -0.266497964529E+03 -0.266496693176E+03
 -0.266495337041E+03 -0.266493890546E+03 -0.266492347744E+03 -0.266490702296E+03 -0.266488947442E+03
 -0.266487075974E+03 -0.266485080211E+03 -0.266482951959E+03 -0.266480682487E+03 -0.266478262485E+03
 -0.266475682027E+03 -0.266472930532E+03 -0.266469996719E+03 -0.266466868565E+03 -0.266463533249E+03
 -0.266459977105E+03 -0.266456185566E+03 -0.266452143100E+03 -0.266447833155E+03 -0.266443238081E+03
 -0.266438339067E+03 -0.266433116060E+03 -0.266427547685E+03 -0.266421611156E+03 -0.266415282186E+03
 -0.266408534886E+03 -0.266401341661E+03 -0.266393673098E+03 -0.266385497846E+03 -0.266376782488E+03
 -0.266367491409E+03 -0.266357586648E+03 -0.266347027746E+03 -0.266335771581E+03 -0.266323772198E+03
 -0.266310980618E+03 -0.266297344644E+03 -0.266282808648E+03 -0.266267313352E+03 -0.266250795585E+03
 -0.266233188032E+03 -0.266214418962E+03 -0.266194411944E+03 -0.266173085540E+03 -0.266150352980E+03
 -0.266126121817E+03 -0.266100293560E+03 -0.266072763283E+03 -0.266043419209E+03 -0.266012142272E+03
 -0.265978805644E+03 -0.265943274240E+03 -0.265905404189E+03 -0.265865042270E+03 -0.265822025320E+03
 -0.265776179597E+03 -0.265727320113E+03 -0.265675249922E+03 -0.265619759363E+03 -0.265560625263E+03
 -0.265497610092E+03 -0.265430461065E+03 -0.265358909194E+03 -0.265282668286E+03 -0.265201433885E+03
 -0.265114882150E+03 -0.265022668674E+03 -0.264924427241E+03 -0.264819768507E+03 -0.264708278622E+03
 -0.264589517773E+03 -0.264463018654E+03 -0.264328284863E+03 -0.264184789214E+03 -0.264031971979E+03
 -0.263869239043E+03 -0.263695959976E+03 -0.263511466032E+03 -0.263315048060E+03 -0.263105954334E+03
 -0.262883388317E+03 -0.262646506337E+03 -0.262394415204E+03 -0.262126169758E+03 -0.261840770363E+03
 -0.261537160356E+03 -0.261214223462E+03 -0.260870781182E+03 -0.260505590189E+03 -0.260117339735E+03
 -0.259704649096E+03 -0.259266065094E+03 -0.258800059714E+03 -0.258305027865E+03 -0.257779285319E+03
 -0.257221066886E+03 -0.256628524876E+03 -0.255999727913E+03 -0.255332660175E+03 -0.254625221137E+03
 -0.253875225916E+03 -0.253080406306E+03 -0.252238412635E+03 -0.251346816549E+03 -0.250403114868E+03
 -0.249404734664E+03 -0.248349039727E+03 -0.247233338584E+03 -0.246054894272E+03 -0.244810936056E+03
 -0.243498673318E+03 -0.242115311833E+03 -0.240658072669E+03 -0.239124213960E+03 -0.237511055789E+03
 -0.235816008438E+03 -0.234036604259E+03 -0.232170533393E+03 -0.230215683585E+03 -0.228170184310E+03
 -0.226032455411E+03 -0.223801260424E+03 -0.221475764743E+03 -0.219055598748E+03 -0.216540925986E+03
 -0.213932516443E+03 -0.211231824929E+03 -0.208441074503E+03 -0.205563344767E+03 -0.202602664651E+03
 -0.199564108898E+03 -0.196453896661E+03 -0.193279489048E+03 -0.190049679428E+03 -0.186774664638E+03
 -0.183466074664E+03 -0.180136919660E+03 -0.176801381207E+03 -0.173474324987E+03 -0.170170346582E+03
 -0.166902108687E+03 -0.163677776464E+03 -0.160497699187E+03 -0.157351366306E+03 -0.154217080518E+03
 -0.151067903263E+03 -0.147886305549E+03 -0.144684077656E+03 -0.141508891904E+03 -0.138387524743E+03
 -0.135159150558E+03 -0.131400878323E+03 -0.126938418372E+03 -0.123731536944E+03 -0.120636340641E+03
 -0.117559868911E+03 -0.114522850258E+03 -0.111519222532E+03 -0.108536886422E+03 -0.105565373846E+03
 -0.102647828718E+03 -0.997924882744E+02 -0.969984632133E+02 -0.942670052796E+02 -0.915989923134E+02
 -0.889949501752E+02 -0.864550737595E+02 -0.839792416368E+02 -0.815670255754E+02 -0.792176969002E+02
 -0.769302345453E+02 -0.747033409599E+02 -0.725354720211E+02 -0.704248860757E+02 -0.683697082948E+02
 -0.663680196198E+02 -0.644179464407E+02 -0.625177508996E+02 -0.606659122419E+02 -0.588611856260E+02
 -0.571026351005E+02 -0.553896377026E+02 -0.537218590251E+02 -0.520992027846E+02 -0.505217385069E+02
 -0.489896128760E+02 -0.475029518775E+02 -0.460617626488E+02 -0.446658453912E+02
 core charge-density (pseudized)
  0.104180738455E-07  0.111066293320E-07  0.118406931018E-07  0.126232729062E-07  0.134575752863E-07
  0.143470187111E-07  0.152952475844E-07  0.163061471774E-07  0.173838595482E-07  0.185328005132E-07
  0.197576777409E-07  0.210635100409E-07  0.224556479278E-07  0.239397955447E-07  0.255220340348E-07
  0.272088464590E-07  0.290071443589E-07  0.309242960767E-07  0.329681569456E-07  0.351471014767E-07
  0.374700576727E-07  0.399465436090E-07  0.425867064335E-07  0.454013639434E-07  0.484020489098E-07
  0.516010563321E-07  0.550114938156E-07  0.586473352785E-07  0.625234782083E-07  0.666558047033E-07
  0.710612465471E-07  0.757578545854E-07  0.807648726869E-07  0.861028165936E-07  0.917935579814E-07
  0.978604140771E-07  0.104328243198E-06  0.111223546608E-06  0.118574577100E-06  0.126411454762E-06
  0.134766290389E-06  0.143673317056E-06  0.153169030380E-06  0.163292338061E-06  0.174084719300E-06
  0.185590394756E-06  0.197856507734E-06  0.210933317351E-06  0.224874404467E-06  0.239736891225E-06
  0.255581675104E-06  0.272473678439E-06  0.290482114432E-06  0.309680770746E-06  0.330148311841E-06
  0.351968601293E-06  0.375231045411E-06  0.400030959575E-06  0.426469958775E-06  0.454656373965E-06
  0.484705695940E-06  0.516741048539E-06  0.550893693134E-06  0.587303566453E-06  0.626119853957E-06
  0.667501601100E-06  0.711618365003E-06  0.758650909188E-06  0.808791944230E-06  0.862246917363E-06
  0.919234854270E-06  0.979989256505E-06  0.104475905823E-05  0.111380964620E-05  0.118742394711E-05
  0.126590358688E-05  0.134957012647E-05  0.143876637947E-05  0.153385781670E-05  0.163523406364E-05
  0.174331049687E-05  0.185852994600E-05  0.198136450806E-05  0.211231748182E-05  0.225192542997E-05
  0.240076037757E-05  0.255943215576E-05  0.272859090043E-05  0.290892971598E-05  0.310118751517E-05
  0.330615204657E-05  0.352466312218E-05  0.375761605834E-05  0.400596534397E-05  0.427072855133E-05
  0.455299050519E-05  0.485390772754E-05  0.517471317601E-05  0.551672129548E-05  0.588133340349E-05
  0.627004343161E-05  0.668444404612E-05  0.712623317332E-05  0.759722095595E-05  0.809933716937E-05
  0.863463912778E-05  0.920532011297E-05  0.981371836003E-05  0.104623266368E-04  0.111538024565E-04
  0.118909789649E-04  0.126768765473E-04  0.135147152021E-04  0.144079277324E-04  0.153601738088E-04
  0.163753549616E-04  0.174576305639E-04  0.186114348701E-04  0.198414951809E-04  0.211528512077E-04
  0.225508757171E-04  0.240412965392E-04  0.256302200289E-04  0.273241560790E-04  0.291300447838E-04
  0.310552848655E-04  0.331077639775E-04  0.352958910103E-04  0.376286305301E-04  0.401155394932E-04
  0.427668063847E-04  0.455932929423E-04  0.486065786358E-04  0.518190080834E-04  0.552437415997E-04
  0.588948090811E-04  0.627871674494E-04  0.669367618874E-04  0.713605911181E-04  0.760767769920E-04
  0.811046386687E-04  0.864647716944E-04  0.921791322977E-04  0.982711272487E-04  0.104765709647E-03
  0.111689481030E-03  0.119070800216E-03  0.126939899326E-03  0.135329007462E-03  0.144272482533E-03
  0.153806951780E-03  0.163971461561E-03  0.174807637007E-03  0.186359852203E-03  0.198675411578E-03
  0.211804743245E-03  0.225801605072E-03  0.240723304325E-03  0.256630931763E-03  0.273589611145E-03
  0.291668765143E-03  0.310942398749E-03  0.331489401317E-03  0.353393868451E-03  0.376745445040E-03
  0.401639690826E-03  0.428178469967E-03  0.456470366158E-03  0.486631124980E-03  0.518784125246E-03
  0.553060881222E-03  0.589601577732E-03  0.628555640277E-03  0.670082342434E-03  0.714351452941E-03
  0.761543925035E-03  0.811852630761E-03  0.865483143138E-03  0.922654569270E-03  0.983600437650E-03
  0.104856964312E-02  0.111782745321E-02  0.119165657962E-02  0.127035831923E-02  0.135425376875E-02
  0.144368511786E-02  0.153901702569E-02  0.164063808588E-02  0.174896238572E-02  0.186443116525E-02
  0.198751458254E-02  0.211871359156E-02  0.225856193967E-02  0.240762829197E-02  0.256651849020E-02
  0.273587795419E-02  0.291639423461E-02  0.310879972572E-02  0.331387454769E-02  0.353244960834E-02
  0.376540985468E-02  0.401369772498E-02  0.427831681279E-02  0.456033575471E-02  0.486089235416E-02
  0.518119795389E-02  0.552254207051E-02  0.588629730469E-02  0.627392454112E-02  0.668697845260E-02
  0.712711332311E-02  0.759608920494E-02  0.809577842492E-02  0.862817245527E-02  0.919538916420E-02
  0.979968046140E-02  0.104434403533E-01  0.111292134222E-01  0.118597037429E-01  0.126377842491E-01
  0.134665065611E-01  0.143491112835E-01  0.152890387807E-01  0.162899404350E-01  0.173556903873E-01
  0.184903977600E-01  0.196984193525E-01  0.209843727989E-01  0.223531501667E-01  0.238099319709E-01
  0.253602015668E-01  0.270097598755E-01  0.287647403839E-01  0.306316243465E-01  0.326172560998E-01
  0.347288583836E-01  0.369740475392E-01  0.393608484336E-01  0.418977089275E-01  0.445935136765E-01
  0.474575970180E-01  0.504997546552E-01  0.537302538056E-01  0.571598414290E-01  0.607997500926E-01
  0.646617009677E-01  0.687579033784E-01  0.731010502456E-01  0.777043086781E-01  0.825813048671E-01
  0.877461023331E-01  0.932131724522E-01  0.989973560666E-01  0.105113814839E+00  0.111577970865E+00
  0.118405432889E+00  0.125611907315E+00  0.133213092000E+00  0.141224550656E+00  0.149661565478E+00
  0.158538965430E+00  0.167870927444E+00  0.177670747580E+00  0.187950579066E+00  0.198721133990E+00
  0.209991345314E+00  0.221767985850E+00  0.234055240880E+00  0.246854231214E+00  0.260162483736E+00
  0.273973346907E+00  0.288275349280E+00  0.303051499906E+00  0.318278530643E+00  0.333926081833E+00
  0.349955834669E+00  0.366320595921E+00  0.382963343579E+00  0.399816245504E+00  0.416799667406E+00
  0.433821191526E+00  0.450774673287E+00  0.467539370028E+00  0.483979183745E+00  0.499942068507E+00
  0.515259662888E+00  0.529747218198E+00  0.543203904237E+00  0.555413585420E+00  0.566146170849E+00
  0.575159651441E+00  0.582202944596E+00  0.587019670659E+00  0.589352983871E+00  0.588951571487E+00
  0.585576915499E+00  0.579011878824E+00  0.569070628291E+00  0.555609836078E+00  0.538541005202E+00
  0.517843638788E+00  0.493578813268E+00  0.465902519427E+00  0.435077901429E+00  0.401485254694E+00
  0.365628345611E+00  0.328135303071E+00  0.289752025921E+00  0.251325785794E+00  0.213776529437E+00
  0.178053363904E+00  0.145073925465E+00  0.115644891797E+00  0.903629163019E-01  0.694968730117E-01
  0.528566105419E-01  0.398126072914E-01  0.296917963429E-01  0.219196963563E-01  0.160138553459E-01
  0.115743058589E-01  0.827368959632E-02  0.584748715577E-02  0.408468558885E-02  0.281912084759E-02
  0.192164735202E-02  0.129321484468E-02  0.858874178421E-03  0.562688519879E-03  0.363493747097E-03
  0.231430203581E-03  0.145155791874E-03  0.896458754322E-04  0.544868453979E-04  0.325758435036E-04
  0.191475384080E-04  0.110587822176E-04  0.627242386687E-05  0.349177527044E-05  0.190669325442E-05
  0.102063632813E-05  0.535228481156E-06  0.274787735524E-06  0.138021315720E-06  0.677757821758E-07
  0.325131367540E-07  0.152251877780E-07  0.695402486878E-08  0.309539967420E-08
 pseudo wavefunction
  0.431224708315E-12  0.474674506163E-12  0.522502264950E-12  0.575149103919E-12  0.633100589072E-12
  0.696891211589E-12  0.767109317479E-12  0.844402533942E-12  0.929483742489E-12  0.102313765390E-11
  0.112622804569E-11  0.123970572876E-11  0.136461731684E-11  0.150211487949E-11  0.165346656770E-11
  0.182006831015E-11  0.200345668803E-11  0.220532310695E-11  0.242752939699E-11  0.267212498448E-11
  0.294136579402E-11  0.323773505503E-11  0.356396620481E-11  0.392306809923E-11  0.431835276363E-11
  0.475346593991E-11  0.523242071149E-11  0.575963451629E-11  0.633996988912E-11  0.697877930918E-11
  0.768195456644E-11  0.845598110206E-11  0.930799782412E-11  0.102458629503E-10  0.112782264849E-10
  0.124146099985E-10  0.136654944458E-10  0.150424168331E-10  0.165580766239E-10  0.182264528680E-10
  0.200629331309E-10  0.220844554142E-10  0.243096643767E-10  0.267590832953E-10  0.294553033523E-10
  0.324231919961E-10  0.356901222955E-10  0.392862254030E-10  0.432446684575E-10  0.476019604866E-10
  0.523982891322E-10  0.576778913041E-10  0.634894611805E-10  0.698865993174E-10  0.769283070105E-10
  0.846795304688E-10  0.932117598172E-10  0.102603688456E-09  0.112941938854E-09  0.124321861474E-09
  0.136848414200E-09  0.150637130363E-09  0.165815184320E-09  0.182522564388E-09  0.200913363964E-09
  0.221157202743E-09  0.243440791123E-09  0.267969652253E-09  0.294970017583E-09  0.324690913409E-09
  0.357406457656E-09  0.393418388083E-09  0.433058845227E-09  0.476693435752E-09  0.524724604456E-09
  0.577595346037E-09  0.635793290857E-09  0.699855202373E-09  0.770371927730E-09  0.847993847165E-09
  0.933436872488E-09  0.102748904995E-08  0.113101782844E-08  0.124497805995E-08  0.137042080623E-08
  0.150850303272E-08  0.166049827927E-08  0.182780840602E-08  0.201197652275E-08  0.221470122095E-08
  0.243785223997E-08  0.268348771157E-08  0.295387314203E-08  0.325150230687E-08  0.357912025085E-08
  0.393974860540E-08  0.433671345700E-08  0.477367602349E-08  0.525466642121E-08  0.578412083450E-08
  0.636692243021E-08  0.700844639471E-08  0.771460950865E-08  0.849192471670E-08  0.934756119556E-08
  0.102894104742E-07  0.113261592164E-07  0.124673693356E-07  0.137235661836E-07  0.151063356226E-07
  0.166284308795E-07  0.183038901656E-07  0.201481661470E-07  0.221782684599E-07  0.244129205850E-07
  0.268727325276E-07  0.295803908959E-07  0.325608681298E-07  0.358416528115E-07  0.394530031785E-07
  0.434282261807E-07  0.478039846514E-07  0.526206354266E-07  0.579226015308E-07  0.637587818594E-07
  0.701830021375E-07  0.772545113114E-07  0.850385279515E-07  0.936068417034E-07  0.103038475334E-06
  0.113420413474E-06  0.124848404783E-06  0.137427844921E-06  0.151274748475E-06  0.166516818808E-06
  0.183294625675E-06  0.201762901474E-06  0.222091968086E-06  0.244469307444E-06  0.269101290319E-06
  0.296215079252E-06  0.326060723171E-06  0.358913463009E-06  0.395076269555E-06  0.434882636943E-06
  0.478699657507E-06  0.526931406356E-06  0.580022666832E-06  0.638463031196E-06  0.702791414309E-06
  0.773601021905E-06  0.851544819199E-06  0.937341550231E-06  0.103178236336E-05  0.113573810394E-05
  0.125016734134E-05  0.137612520415E-05  0.151477310507E-05  0.166738944480E-05  0.183538139362E-05
  0.202029785898E-05  0.222384375850E-05  0.244789572963E-05  0.269451942051E-05  0.296598852109E-05
  0.326480570939E-05  0.359372570566E-05  0.395578064614E-05  0.435430800976E-05  0.479298135421E-05
  0.527584414386E-05  0.580734697993E-05  0.639238857493E-05  0.703636084709E-05  0.774519854879E-05
  0.852543388385E-05  0.938425661445E-05  0.103295802085E-04  0.113701146334E-04  0.125154464622E-04
  0.137761270259E-04  0.151637694175E-04  0.166911552346E-04  0.183723520364E-04  0.202228425858E-04
  0.222596670577E-04  0.245015795085E-04  0.269692200326E-04  0.296853041732E-04  0.326748313095E-04
  0.359653139141E-04  0.395870297598E-04  0.435732993659E-04  0.479607911921E-04  0.527898573446E-04
  0.581049028238E-04  0.639547916471E-04  0.703932935025E-04  0.774795749507E-04  0.852787395864E-04
  0.938624219970E-04  0.103309440833E-03  0.113706516817E-03  0.125149062087E-03  0.137742047885E-03
  0.151600958280E-03  0.166852838353E-03  0.183637446081E-03  0.202108518036E-03  0.222435159981E-03
  0.244803374487E-03  0.269417738854E-03  0.296503247848E-03  0.326307337124E-03  0.359102104694E-03
  0.395186749381E-03  0.434890246946E-03  0.478574286450E-03  0.526636491461E-03  0.579513952908E-03
  0.637687102759E-03  0.701683960275E-03  0.772084785325E-03  0.849527176222E-03  0.934711652693E-03
  0.102840776799E-02  0.113146079771E-02  0.124479905687E-02  0.136944190048E-02  0.150650846765E-02
  0.165722723321E-02  0.182294643585E-02  0.200514545644E-02  0.220544722529E-02  0.242563174200E-02
  0.266765079690E-02  0.293364398791E-02  0.322595613176E-02  0.354715617317E-02  0.390005769988E-02
  0.428774117531E-02  0.471357800350E-02  0.518125654313E-02  0.569481018802E-02  0.625864763058E-02
  0.687758542159E-02  0.755688293392E-02  0.830227982896E-02  0.912003611173E-02  0.100169748429E-01
  0.110005275533E-01  0.120787823748E-01  0.132605348665E-01  0.145553414644E-01  0.159735754251E-01
  0.175264850640E-01  0.192262539992E-01  0.210860630091E-01  0.231201529880E-01  0.253438883351E-01
  0.277738199394E-01  0.304277467201E-01  0.333247744457E-01  0.364853702810E-01  0.399314111975E-01
  0.436862240242E-01  0.477746145079E-01  0.522228822939E-01  0.570588182248E-01  0.623116797865E-01
  0.680121399079E-01  0.741922036416E-01  0.808850865292E-01  0.881250476895E-01  0.959471698792E-01
  0.104387077978E+00  0.113480586580E+00  0.123263266660E+00  0.133769920681E+00  0.145033955067E+00
  0.157086638814E+00  0.169956237140E+00  0.183667009757E+00  0.198238064577E+00  0.213682059703E+00
  0.230003749595E+00  0.247198375486E+00  0.265249905809E+00  0.284129139774E+00  0.303791696545E+00
  0.324175924092E+00  0.345200775771E+00  0.366763719375E+00  0.388738762633E+00  0.410974700966E+00
  0.433293717221E+00  0.455490488387E+00  0.477331979875E+00  0.498558131850E+00  0.518883662045E+00
  0.538001221982E+00  0.555586144267E+00  0.571303002270E+00  0.584814163440E+00  0.595790446463E+00
  0.603923882217E+00  0.608942421036E+00  0.610626216868E+00  0.608824847726E+00  0.603474500988E+00
  0.594613768199E+00  0.582396274267E+00  0.567097941871E+00  0.549116313626E+00  0.528959094979E+00
  0.507219038255E+00  0.484532586623E+00  0.461520481603E+00  0.438709964406E+00  0.416440204059E+00
  0.394797783645E+00  0.373783197560E+00  0.353402522688E+00  0.333660358656E+00  0.314560067291E+00
  0.296103975679E+00  0.278293540406E+00  0.261129472454E+00  0.244611821070E+00  0.228740015159E+00
  0.213512861038E+00  0.198928496687E+00  0.184984305041E+00  0.171676792364E+00  0.159001431210E+00
  0.146952545734E+00  0.135523095033E+00  0.124704587908E+00  0.114486982128E+00  0.104858645998E+00
  0.958063782645E-01  0.873154873081E-01  0.793699245010E-01  0.719524614483E-01  0.650448969235E-01
  0.586282770982E-01  0.526831122372E-01  0.471895744383E-01  0.421276641449E-01
 ae wavefunction
  0.455475901425E-09  0.498370034873E-09  0.544913301367E-09  0.595448207761E-09  0.650347038172E-09
  0.710014661685E-09  0.774891590821E-09  0.845457314525E-09  0.922233931768E-09  0.100579011462E-08
  0.109674543168E-08  0.119577506654E-08  0.130361496806E-08  0.142106747404E-08  0.154900745258E-08
  0.168838901024E-08  0.184025282081E-08  0.200573413319E-08  0.218607152277E-08  0.238261645679E-08
  0.259684375070E-08  0.283036299999E-08  0.308493108025E-08  0.336246581652E-08  0.366506093338E-08
  0.399500240720E-08  0.435478635435E-08  0.474713860138E-08  0.517503609748E-08  0.564173034530E-08
  0.615077304236E-08  0.670604414486E-08  0.731178258530E-08  0.797261989751E-08  0.869361702928E-08
  0.948030464653E-08  0.103387272650E-07  0.112754915777E-07  0.122978193805E-07  0.134136055399E-07
  0.146314814865E-07  0.159608847700E-07  0.174121352571E-07  0.189965186161E-07  0.207263777920E-07
  0.226152132433E-07  0.246777927902E-07  0.269302720029E-07  0.293903261539E-07  0.320772948518E-07
  0.350123405903E-07  0.382186225609E-07  0.417214872118E-07  0.455486771815E-07  0.497305603912E-07
  0.543003812588E-07  0.592945361847E-07  0.647528756736E-07  0.707190356855E-07  0.772408010624E-07
  0.843705041567E-07  0.921654620931E-07  0.100688456429E-06  0.110008259349E-06  0.120200210932E-06
  0.131346852476E-06  0.143538621345E-06  0.156874613347E-06  0.171463419229E-06  0.187424042533E-06
  0.204886906739E-06  0.223994960424E-06  0.244904889999E-06  0.267788450524E-06  0.292833926128E-06
  0.320247732676E-06  0.350256176578E-06  0.383107384950E-06  0.419073423869E-06  0.458452623045E-06
  0.501572127051E-06  0.548790695176E-06  0.600501774152E-06  0.657136870322E-06  0.719169250407E-06
  0.787118002866E-06  0.861552494916E-06  0.943097263727E-06  0.103243738394E-05  0.113032435784E-05
  0.123758257887E-05  0.135511642421E-05  0.148391803730E-05  0.162507586728E-05  0.177978403860E-05
  0.194935263107E-05  0.213521895855E-05  0.233895994250E-05  0.256230568632E-05  0.280715436608E-05
  0.307558856456E-05  0.336989318750E-05  0.369257511401E-05  0.404638474797E-05  0.443433965242E-05
  0.485975046669E-05  0.532624932467E-05  0.583782101303E-05  0.639883713110E-05  0.701409353810E-05
  0.768885140072E-05  0.842888218285E-05  0.924051695145E-05  0.101307004070E-04  0.111070500851E-04
  0.121779212172E-04  0.133524777827E-04  0.146407703346E-04  0.160538212342E-04  0.176037179867E-04
  0.193037154353E-04  0.211683476384E-04  0.232135503290E-04  0.254567949378E-04  0.279172352479E-04
  0.306158678460E-04  0.335757076385E-04  0.368219798118E-04  0.403823297402E-04  0.442870524757E-04
  0.485693435956E-04  0.532655733420E-04  0.584155861497E-04  0.640630278433E-04  0.702557029776E-04
  0.770459650051E-04  0.844911421829E-04  0.926540023731E-04  0.101603260155E-03  0.111414129952E-03
  0.122168929167E-03  0.133957735674E-03  0.146879104323E-03  0.161040847526E-03  0.176560885361E-03
  0.193568171090E-03  0.212203698403E-03  0.232621597220E-03  0.254990325384E-03  0.279493964110E-03
  0.306333625673E-03  0.335728982393E-03  0.367919926645E-03  0.403168372304E-03  0.441760208737E-03
  0.484007419240E-03  0.530250376553E-03  0.580860328975E-03  0.636242091382E-03  0.696836956395E-03
  0.763125841817E-03  0.835632691406E-03  0.914928147024E-03  0.100163351112E-02  0.109642501955E-02
  0.120003844568E-02  0.131327405766E-02  0.143700195178E-02  0.157216778566E-02  0.171979893604E-02
  0.188101110646E-02  0.205701541128E-02  0.224912596269E-02  0.245876798822E-02  0.268748650635E-02
  0.293695558811E-02  0.320898823270E-02  0.350554688433E-02  0.382875461764E-02  0.418090701744E-02
  0.456448477767E-02  0.498216704249E-02  0.543684551037E-02  0.593163931898E-02  0.646991072548E-02
  0.705528159278E-02  0.769165068706E-02  0.838321178662E-02  0.913447259522E-02  0.995027444531E-02
  0.108358127683E-01  0.117966582982E-01  0.128387789655E-01  0.139685624227E-01  0.151928391324E-01
  0.165189059315E-01  0.179545499669E-01  0.195080728829E-01  0.211883151178E-01  0.230046801458E-01
  0.249671584790E-01  0.270863512183E-01  0.293734929185E-01  0.318404735056E-01  0.344998589591E-01
  0.373649104427E-01  0.404496015399E-01  0.437686332173E-01  0.473374460977E-01  0.511722295772E-01
  0.552899272500E-01  0.597082380125E-01  0.644456120986E-01  0.695212411572E-01  0.749550413341E-01
  0.807676282064E-01  0.869802823704E-01  0.936149045515E-01  0.100693959302E+00  0.108240406657E+00
  0.116277621469E+00  0.124829300489E+00  0.133919357480E+00  0.143571806700E+00  0.153810634890E+00
  0.164659661500E+00  0.176142386408E+00  0.188281824031E+00  0.201100322752E+00  0.214619368874E+00
  0.228859374741E+00  0.243839451113E+00  0.259577164130E+00  0.276088277409E+00  0.293386479942E+00
  0.311483100698E+00  0.330386811107E+00  0.350103317010E+00  0.370635042101E+00  0.391980805459E+00
  0.414135496296E+00  0.437089749688E+00  0.460829627644E+00  0.485336310507E+00  0.510585804189E+00
  0.536548669262E+00  0.563189778244E+00  0.590468107565E+00  0.618336570698E+00  0.646741898725E+00
  0.675624574437E+00  0.704918826122E+00  0.734552687954E+00  0.764448135935E+00  0.794521311892E+00
  0.824682852900E+00  0.854838347340E+00  0.884888936152E+00  0.914732058403E+00  0.944262291007E+00
  0.973372146217E+00  0.100195258796E+01  0.102989297823E+01  0.105708027912E+01  0.108339769275E+01
  0.110872344824E+01  0.113293081145E+01  0.115589008908E+01  0.117747229371E+01  0.119755310219E+01
  0.121601584386E+01  0.123275323797E+01  0.124766834144E+01  0.126067524330E+01  0.127169978941E+01
  0.128068038304E+01  0.128756878154E+01  0.129233077349E+01  0.129494663868E+01  0.129541133300E+01
  0.129373438118E+01  0.128993949132E+01  0.128406392299E+01  0.127615764914E+01  0.126628235440E+01
  0.125451031098E+01  0.124092317072E+01  0.122561070888E+01  0.120866955113E+01  0.119020191117E+01
  0.117031436231E+01  0.114911666102E+01  0.112672063689E+01  0.110323915807E+01  0.107878517798E+01
  0.105347086565E+01  0.102740681915E+01  0.100070136066E+01  0.973459910921E+00  0.945784438707E+00
  0.917772987257E+00  0.889519271955E+00  0.861112351228E+00  0.832636368695E+00  0.804170365003E+00
  0.775788156164E+00  0.747558273424E+00  0.719543957967E+00  0.691803202731E+00  0.664388833624E+00
  0.637348623844E+00  0.610725437280E+00  0.584557400024E+00  0.558878101080E+00  0.533716824509E+00
  0.509098814466E+00  0.485045571631E+00  0.461575176370E+00  0.438702630111E+00  0.416440204059E+00
  0.394797783645E+00  0.373783197560E+00  0.353402522688E+00  0.333660358656E+00  0.314560067291E+00
  0.296103975679E+00  0.278293540406E+00  0.261129472454E+00  0.244611821070E+00  0.228740015159E+00
  0.213512861038E+00  0.198928496687E+00  0.184984305041E+00  0.171676792364E+00  0.159001431210E+00
  0.146952545734E+00  0.135523095033E+00  0.124704587908E+00  0.114486982128E+00  0.104858645998E+00
  0.958063782645E-01  0.873154873081E-01  0.793699245010E-01  0.719524614483E-01  0.650448969235E-01
  0.586282770982E-01  0.526831122372E-01  0.471895744383E-01  0.421276641449E-01
 pseudo wavefunction
  0.415646495124E-12  0.457526646804E-12  0.503626603346E-12  0.554371548335E-12  0.610229506454E-12
  0.671715660116E-12  0.739397101029E-12  0.813898060532E-12  0.895905666927E-12  0.986176282917E-12
  0.108554248161E-11  0.119492072538E-11  0.131531981851E-11  0.144785021145E-11  0.159373424259E-11
  0.175431741198E-11  0.193108079103E-11  0.212565468246E-11  0.233983365680E-11  0.257559310380E-11
  0.283510745163E-11  0.312077022181E-11  0.343521610481E-11  0.378134526005E-11  0.416235006429E-11
  0.458174455514E-11  0.504339684135E-11  0.555156477867E-11  0.611093524036E-11  0.672666734461E-11
  0.740444003750E-11  0.815050447034E-11  0.897174165457E-11  0.987572592579E-11  0.108707948025E-10
  0.119661258838E-10  0.131718214947E-10  0.144990018611E-10  0.159599076723E-10  0.175680129778E-10
  0.193381494595E-10  0.212866432255E-10  0.234314653868E-10  0.257923978067E-10  0.283912155500E-10
  0.312518877161E-10  0.344007985080E-10  0.378669905758E-10  0.416824328789E-10  0.458823155383E-10
  0.505053743979E-10  0.555942482875E-10  0.611958722843E-10  0.673619105983E-10  0.741492330750E-10
  0.816204397101E-10  0.898444380138E-10  0.988970785494E-10  0.108861854508E-09  0.119830671773E-09
  0.131904696574E-09  0.145195288547E-09  0.159825027817E-09  0.175928845557E-09  0.193655268472E-09
  0.213167788667E-09  0.234646371543E-09  0.258289115634E-09  0.284314079679E-09  0.312961293790E-09
  0.344494973264E-09  0.379205955455E-09  0.417414382184E-09  0.459472652421E-09  0.505768672483E-09
  0.556729433706E-09  0.612824950613E-09  0.674572595875E-09  0.742541872059E-09  0.817359664178E-09
  0.899716021468E-09  0.990370521739E-09  0.109015927699E-08  0.120000264487E-08  0.132091371719E-08
  0.145400766367E-08  0.160051201718E-08  0.176177799525E-08  0.193929296244E-08  0.213469414821E-08
  0.234978374716E-08  0.258654554061E-08  0.284716319303E-08  0.313404039187E-08  0.344982301679E-08
  0.379742354242E-08  0.418004790010E-08  0.460122504593E-08  0.506483950819E-08  0.557516721405E-08
  0.613691492617E-08  0.675526365267E-08  0.743591643116E-08  0.818515092717E-08  0.900987733230E-08
  0.991770209599E-08  0.109169980786E-07  0.120169817732E-07  0.132277983070E-07  0.145606150086E-07
  0.160277244012E-07  0.176426575741E-07  0.194203089761E-07  0.213770737831E-07  0.235309991055E-07
  0.259019504311E-07  0.285117948373E-07  0.313846026626E-07  0.345468694975E-07  0.380277605414E-07
  0.418593795789E-07  0.460770650567E-07  0.507197159900E-07  0.558301507046E-07  0.614555017228E-07
  0.676476504338E-07  0.744637055566E-07  0.819665298086E-07  0.902253196336E-07  0.993162433373E-07
  0.109323143512E-06  0.120338310228E-06  0.132463332119E-06  0.145810033215E-06  0.160501504144E-06
  0.176673237228E-06  0.194474375928E-06  0.214069090156E-06  0.235638090132E-06  0.259380292750E-06
  0.285514655794E-06  0.314282196939E-06  0.345948216113E-06  0.380804741730E-06  0.419173223329E-06
  0.461407495429E-06  0.507897039921E-06  0.559070577053E-06  0.615400018102E-06  0.677404816148E-06
  0.745656755032E-06  0.820785220620E-06  0.903483002933E-06  0.994512682570E-06  0.109471366027E-05
  0.120500989431E-05  0.132641841707E-05  0.146005870902E-05  0.160716301666E-05  0.176908770915E-05
  0.194732577834E-05  0.214352059716E-05  0.235948106291E-05  0.259719826495E-05  0.285886382984E-05
  0.314689011294E-05  0.346393242190E-05  0.381291347644E-05  0.419705032930E-05  0.461988399561E-05
  0.508531206299E-05  0.559762458179E-05  0.616154356518E-05  0.678226646149E-05  0.746551399778E-05
  0.821758283361E-05  0.904540350775E-05  0.995660420901E-05  0.109595809555E-04  0.120635748253E-04
  0.132787569449E-04  0.146163220141E-04  0.160885912214E-04  0.177091254919E-04  0.194928501010E-04
  0.214561917916E-04  0.236172296469E-04  0.259958610923E-04  0.286139845394E-04  0.314957003344E-04
  0.346675318375E-04  0.381586686427E-04  0.420012341434E-04  0.462305798713E-04  0.508856092725E-04
  0.560091338488E-04  0.616482648814E-04  0.678548442690E-04  0.746859183614E-04  0.822042590463E-04
  0.904789367683E-04  0.995859506130E-04  0.109608921089E-03  0.120639851789E-03  0.132779966711E-03
  0.146140630676E-03  0.160844360994E-03  0.177025939311E-03  0.194833633440E-03  0.214430539889E-03
  0.235996058844E-03  0.259727514455E-03  0.285841934510E-03  0.314578004870E-03  0.346198215496E-03
  0.380991216466E-03  0.419274404042E-03  0.461396758718E-03  0.507741959158E-03  0.558731798090E-03
  0.614829928550E-03  0.676545971385E-03  0.744440017641E-03  0.819127562356E-03  0.901284909421E-03
  0.991655090506E-03  0.109105434462E-02  0.120037920872E-02  0.132061427367E-02  0.145284066445E-02
  0.159824530758E-02  0.175813105375E-02  0.193392772853E-02  0.212720418901E-02  0.233968146937E-02
  0.257324710418E-02  0.282997072279E-02  0.311212101431E-02  0.342218416725E-02  0.376288389306E-02
  0.413720314722E-02  0.454840766559E-02  0.500007143637E-02  0.549610423060E-02  0.604078131416E-02
  0.663877546339E-02  0.729519140262E-02  0.801560277602E-02  0.880609175623E-02  0.967329137827E-02
  0.106244306688E-01  0.116673826151E-01  0.128107149876E-01  0.140637439862E-01  0.154365906343E-01
  0.169402397773E-01  0.185866014705E-01  0.203885744462E-01  0.223601112408E-01  0.245162844314E-01
  0.268733532755E-01  0.294488298647E-01  0.322615436894E-01  0.353317032653E-01  0.386809531845E-01
  0.423324246274E-01  0.463107769982E-01  0.506422279224E-01  0.553545683746E-01  0.604771591717E-01
  0.660409044874E-01  0.720781974086E-01  0.786228318657E-01  0.857098745445E-01  0.933754896259E-01
  0.101656708428E+00  0.110591135260E+00  0.120216580074E+00  0.130570607878E+00  0.141689994347E+00
  0.153610076836E+00  0.166363989973E+00  0.179981775471E+00  0.194489356765E+00  0.209907370777E+00
  0.226249851635E+00  0.243522764916E+00  0.261722395889E+00  0.280833601931E+00  0.300827947665E+00
  0.321661752026E+00  0.343274089427E+00  0.365584802757E+00  0.388492604243E+00  0.411873361112E+00
  0.435578686380E+00  0.459434980298E+00  0.483243094136E+00  0.506778813563E+00  0.529794381700E+00
  0.552021299009E+00  0.573174644517E+00  0.592959155412E+00  0.611077273420E+00  0.627239309175E+00
  0.641175781512E+00  0.652651848111E+00  0.661483548326E+00  0.667555320469E+00  0.670837929748E+00
  0.671405549981E+00  0.669450291500E+00  0.665291980839E+00  0.659380513720E+00  0.652287682003E+00
  0.644685104813E+00  0.637304890553E+00  0.630880066418E+00  0.626062805958E+00  0.623320245208E+00
  0.622865306204E+00  0.624867717336E+00  0.629534568886E+00  0.637097893997E+00  0.000000000000E+00
  0.000000000000E+00  0.000000000000E+00  0.000000000000E+00  0.000000000000E+00  0.000000000000E+00
  0.000000000000E+00  0.000000000000E+00  0.000000000000E+00  0.000000000000E+00  0.000000000000E+00
  0.000000000000E+00  0.000000000000E+00  0.000000000000E+00  0.000000000000E+00  0.000000000000E+00
  0.000000000000E+00  0.000000000000E+00  0.000000000000E+00  0.000000000000E+00  0.000000000000E+00
  0.000000000000E+00  0.000000000000E+00  0.000000000000E+00  0.000000000000E+00
 ae wavefunction
  0.429274112733E-09  0.469700707057E-09  0.513566513603E-09  0.561194336078E-09  0.612935042476E-09
  0.669170211266E-09  0.730315013921E-09  0.796821356167E-09  0.869181302560E-09  0.947930811580E-09
  0.103365381034E-08  0.112698664163E-08  0.122862291789E-08  0.133931882141E-08  0.145989889238E-08
  0.159126235112E-08  0.173439000533E-08  0.189035179723E-08  0.206031505155E-08  0.224555349061E-08
  0.244745708917E-08  0.266754284864E-08  0.290746657802E-08  0.316903577697E-08  0.345422372576E-08
  0.376518489698E-08  0.410427181460E-08  0.447405349837E-08  0.487733564453E-08  0.531718270870E-08
  0.579694207226E-08  0.632027049175E-08  0.689116304936E-08  0.751398484374E-08  0.819350568483E-08
  0.893493807953E-08  0.974397882464E-08  0.106268545542E-07  0.115903716204E-07  0.126419707268E-07
  0.137897867693E-07  0.150427143896E-07  0.164104797897E-07  0.179037194146E-07  0.195340661643E-07
  0.213142438648E-07  0.232581707970E-07  0.253810731596E-07  0.276996094305E-07  0.302320066803E-07
  0.329982100010E-07  0.360200463190E-07  0.393214039929E-07  0.429284297269E-07  0.468697444848E-07
  0.511766802529E-07  0.558835396771E-07  0.610278808058E-07  0.666508293788E-07  0.727974213472E-07
  0.795169785710E-07  0.868635209258E-07  0.948962183707E-07  0.103679886873E-06  0.113285532465E-06
  0.123790948141E-06  0.135281368725E-06  0.147850189398E-06  0.161599754069E-06  0.176642220431E-06
  0.193100509167E-06  0.211109345533E-06  0.230816402329E-06  0.252383554160E-06  0.275988253840E-06
  0.301825042868E-06  0.330107209053E-06  0.361068605644E-06  0.394965647728E-06  0.432079503172E-06
  0.472718497092E-06  0.517220750637E-06  0.565957076955E-06  0.619334159375E-06  0.677798039278E-06
  0.741837943824E-06  0.811990486577E-06  0.888844277325E-06  0.973044980830E-06  0.106530086815E-05
  0.116638890835E-05  0.127716145305E-05  0.139855357127E-05  0.153159109760E-05  0.167739946284E-05
  0.183721338268E-05  0.201238748753E-05  0.220440798433E-05  0.241490544994E-05  0.264566886532E-05
  0.289866100994E-05  0.317603534731E-05  0.348015454506E-05  0.381361078654E-05  0.417924804562E-05
  0.458018651292E-05  0.501984937929E-05  0.550199220164E-05  0.603073509772E-05  0.661059803919E-05
  0.724653953793E-05  0.794399904768E-05  0.870894343356E-05  0.954791789441E-05  0.104681017588E-04
  0.114773696146E-04  0.125843582737E-04  0.137985401211E-04  0.151303034458E-04  0.165910404079E-04
  0.181932433537E-04  0.199506102574E-04  0.218781601357E-04  0.239923593612E-04  0.263112598817E-04
  0.288546504406E-04  0.316442219970E-04  0.347037486435E-04  0.380592854399E-04  0.417393847008E-04
  0.457753324147E-04  0.502014066134E-04  0.550551596702E-04  0.603777266761E-04  0.662141622241E-04
  0.726138081343E-04  0.796306948610E-04  0.873239795571E-04  0.957584240169E-04  0.105004915984E-03
  0.115141037600E-03  0.126251685067E-03  0.138429743951E-03  0.151776824854E-03  0.166404064639E-03
  0.182432998695E-03  0.199996510258E-03  0.219239863184E-03  0.240321825092E-03  0.263415888312E-03
  0.288711596605E-03  0.316415986207E-03  0.346755150370E-03  0.379975937193E-03  0.416347791246E-03
  0.456164750161E-03  0.499747608142E-03  0.547446259099E-03  0.599642232917E-03  0.656751439211E-03
  0.719227133771E-03  0.787563123785E-03  0.862297228821E-03  0.944015015487E-03  0.103335382457E-02
  0.113100711040E-02  0.123772911317E-02  0.135433988562E-02  0.148173069669E-02  0.162086983530E-02
  0.177280883822E-02  0.193868916695E-02  0.211974935866E-02  0.231733267717E-02  0.253289529008E-02
  0.276801499820E-02  0.302440054372E-02  0.330390152300E-02  0.360851892942E-02  0.394041635088E-02
  0.430193184525E-02  0.469559051555E-02  0.512411780434E-02  0.559045352433E-02  0.609776663900E-02
  0.664947080301E-02  0.724924066777E-02  0.790102895204E-02  0.860908427122E-02  0.937796971186E-02
  0.102125821296E-01  0.111181721392E-01  0.121003647559E-01  0.131651806333E-01  0.143190578325E-01
  0.155688740411E-01  0.169219691444E-01  0.183861680352E-01  0.199698035285E-01  0.216817392268E-01
  0.235313921625E-01  0.255287550173E-01  0.276844176990E-01  0.300095880288E-01  0.325161112685E-01
  0.352164881906E-01  0.381238913678E-01  0.412521793265E-01  0.446159081720E-01  0.482303402477E-01
  0.521114493217E-01  0.562759217125E-01  0.607411526479E-01  0.655252370203E-01  0.706469535641E-01
  0.761257413685E-01  0.819816675985E-01  0.882353853600E-01  0.949080808297E-01  0.102021409058E+00
  0.109597418189E+00  0.117658462154E+00  0.126227102124E+00  0.135325997026E+00  0.144977783274E+00
  0.155204943451E+00  0.166029663245E+00  0.177473675618E+00  0.189558091186E+00  0.202303214069E+00
  0.215728342890E+00  0.229851557002E+00  0.244689488260E+00  0.260257078859E+00  0.276567325885E+00
  0.293631013409E+00  0.311456433277E+00  0.330049096051E+00  0.349411434061E+00  0.369542498981E+00
  0.390437656918E+00  0.412088284535E+00  0.434481470351E+00  0.457599725899E+00  0.481420711954E+00
  0.505916985510E+00  0.531055773464E+00  0.556798779154E+00  0.583102027842E+00  0.609915757068E+00
  0.637184357628E+00  0.664846370968E+00  0.692834549534E+00  0.721075988501E+00  0.749492340702E+00
  0.778000131127E+00  0.806511191047E+00  0.834933229266E+00  0.863170539759E+00  0.891124798390E+00
  0.918695820059E+00  0.945782050787E+00  0.972280521976E+00  0.998086101831E+00  0.102309021547E+01
  0.104717970276E+01  0.107023682984E+01  0.109214118366E+01  0.111277313652E+01  0.113201758965E+01
  0.114976680261E+01  0.116592204249E+01  0.118039448818E+01  0.119310589643E+01  0.120398929785E+01
  0.121298976672E+01  0.122006518939E+01  0.122518692231E+01  0.122834024772E+01  0.122952457209E+01
  0.122875335138E+01  0.122605375609E+01  0.122146610642E+01  0.121504311553E+01  0.120684898127E+01
  0.119695836556E+01  0.118545529814E+01  0.117243203861E+01  0.115798792681E+01  0.114222824812E+01
  0.112526313607E+01  0.110720653016E+01  0.108817520311E+01  0.106828786705E+01  0.104766436495E+01
  0.102642495073E+01  0.100468965847E+01  0.982577760548E+00  0.960207314231E+00  0.937694793666E+00
  0.915154811282E+00  0.892699924958E+00  0.870440535371E+00  0.848484874446E+00  0.826939086765E+00
  0.805907404779E+00  0.785492417512E+00  0.765795431389E+00  0.746916921525E+00  0.728957072546E+00
  0.712016410495E+00  0.696196531004E+00  0.681600933908E+00  0.668335979273E+00  0.656511984358E+00
  0.646244484561E+00  0.637655683150E+00  0.630876116867E+00  0.626046566434E+00  0.623320245208E+00
  0.622865306204E+00  0.624867717336E+00  0.629534568886E+00  0.637097893997E+00  0.000000000000E+00
  0.000000000000E+00  0.000000000000E+00  0.000000000000E+00  0.000000000000E+00  0.000000000000E+00
  0.000000000000E+00  0.000000000000E+00  0.000000000000E+00  0.000000000000E+00  0.000000000000E+00
  0.000000000000E+00  0.000000000000E+00  0.000000000000E+00  0.000000000000E+00  0.000000000000E+00
  0.000000000000E+00  0.000000000000E+00  0.000000000000E+00  0.000000000000E+00  0.000000000000E+00
  0.000000000000E+00  0.000000000000E+00  0.000000000000E+00  0.000000000000E+00
 pseudo wavefunction
  0.423090298311E-04  0.436848139328E-04  0.451053351013E-04  0.465720480745E-04  0.480864548945E-04
  0.496501064463E-04  0.512646040456E-04  0.529316010792E-04  0.546528046976E-04  0.564299775638E-04
  0.582649396580E-04  0.601595701418E-04  0.621158092823E-04  0.641356604394E-04  0.662211921172E-04
  0.683745400822E-04  0.705979095510E-04  0.728935774482E-04  0.752638947384E-04  0.777112888334E-04
  0.802382660788E-04  0.828474143200E-04  0.855414055528E-04  0.883229986597E-04  0.911950422349E-04
  0.941604775021E-04  0.972223413261E-04  0.100383769323E-03  0.103647999071E-03  0.107018373427E-03
  0.110498343949E-03  0.114091474430E-03  0.117801444550E-03  0.121632053643E-03  0.125587224587E-03
  0.129671007822E-03  0.133887585500E-03  0.138241275764E-03  0.142736537173E-03  0.147377973269E-03
  0.152170337286E-03  0.157118537024E-03  0.162227639873E-03  0.167502877999E-03  0.172949653708E-03
  0.178573544973E-03  0.184380311151E-03  0.190375898876E-03  0.196566448156E-03  0.202958298652E-03
  0.209557996178E-03  0.216372299400E-03  0.223408186761E-03  0.230672863623E-03  0.238173769649E-03
  0.245918586424E-03  0.253915245314E-03  0.262171935597E-03  0.270697112845E-03  0.279499507584E-03
  0.288588134234E-03  0.297972300342E-03  0.307661616113E-03  0.317666004252E-03  0.327995710127E-03
  0.338661312256E-03  0.349673733148E-03  0.361044250481E-03  0.372784508659E-03  0.384906530728E-03
  0.397422730698E-03  0.410345926248E-03  0.423689351857E-03  0.437466672357E-03  0.451691996924E-03
  0.466379893531E-03  0.481545403863E-03  0.497204058725E-03  0.513371893943E-03  0.530065466788E-03
  0.547301872932E-03  0.565098763956E-03  0.583474365424E-03  0.602447495552E-03  0.622037584474E-03
  0.642264694145E-03  0.663149538883E-03  0.684713506584E-03  0.706978680624E-03  0.729967862473E-03
  0.753704595050E-03  0.778213186826E-03  0.803518736726E-03  0.829647159824E-03  0.856625213889E-03
  0.884480526784E-03  0.913241624757E-03  0.942937961660E-03  0.973599949106E-03  0.100525898762E-02
  0.103794749878E-02  0.107169895844E-02  0.110654793101E-02  0.114253010482E-02  0.117968232872E-02
  0.121804264977E-02  0.125765035222E-02  0.129854599776E-02  0.134077146701E-02  0.138437000247E-02
  0.142938625275E-02  0.147586631831E-02  0.152385779870E-02  0.157340984126E-02  0.162457319146E-02
  0.167740024490E-02  0.173194510092E-02  0.178826361804E-02  0.184641347115E-02  0.190645421053E-02
  0.196844732292E-02  0.203245629440E-02  0.209854667545E-02  0.216678614806E-02  0.223724459507E-02
  0.230999417166E-02  0.238510937934E-02  0.246266714214E-02  0.254274688546E-02  0.262543061736E-02
  0.271080301258E-02  0.279895149918E-02  0.288996634814E-02  0.298394076576E-02  0.308097098909E-02
  0.318115638452E-02  0.328459954950E-02  0.339140641761E-02  0.350168636701E-02  0.361555233248E-02
  0.373312092102E-02  0.385451253128E-02  0.397985147684E-02  0.410926611346E-02  0.424288897057E-02
  0.438085688692E-02  0.452331115071E-02  0.467039764423E-02  0.482226699328E-02  0.497907472132E-02
  0.514098140875E-02  0.530815285732E-02  0.548076025985E-02  0.565898037550E-02  0.584299571078E-02
  0.603299470633E-02  0.622917192988E-02  0.643172827538E-02  0.664087116874E-02  0.685681478006E-02
  0.707978024295E-02  0.730999588082E-02  0.754769744062E-02  0.779312833415E-02  0.804653988714E-02
  0.830819159653E-02  0.857835139600E-02  0.885729593019E-02  0.914531083781E-02  0.944269104391E-02
  0.974974106166E-02  0.100667753039E-01  0.103941184049E-01  0.107321055523E-01  0.110810828303E-01
  0.114414075733E-01  0.118134487316E-01  0.121975872488E-01  0.125942164513E-01  0.130037424503E-01
  0.134265845575E-01  0.138631757132E-01  0.143139629293E-01  0.147794077460E-01  0.152599867037E-01
  0.157561918294E-01  0.162685311401E-01  0.167975291613E-01  0.173437274627E-01  0.179076852114E-01
  0.184899797428E-01  0.190912071499E-01  0.197119828914E-01  0.203529424198E-01  0.210147418298E-01
  0.216980585270E-01  0.224035919186E-01  0.231320641262E-01  0.238842207216E-01  0.246608314859E-01
  0.254626911935E-01  0.262906204206E-01  0.271454663800E-01  0.280281037825E-01  0.289394357257E-01
  0.298803946114E-01  0.308519430922E-01  0.318550750476E-01  0.328908165920E-01  0.339602271143E-01
  0.350644003498E-01  0.362044654871E-01  0.373815883091E-01  0.385969723695E-01  0.398518602074E-01
  0.411475345989E-01  0.424853198475E-01  0.438665831159E-01  0.452927357974E-01  0.467652349306E-01
  0.482855846573E-01  0.498553377243E-01  0.514760970321E-01  0.531495172290E-01  0.548773063538E-01
  0.566612275272E-01  0.585031006934E-01  0.604048044122E-01  0.623682777042E-01  0.643955219475E-01
  0.664886028294E-01  0.686496523526E-01  0.708808708959E-01  0.731845293319E-01  0.755629712006E-01
  0.780186149394E-01  0.805539561698E-01  0.831715700415E-01  0.858741136313E-01  0.886643283980E-01
  0.915450426913E-01  0.945191743135E-01  0.975897331307E-01  0.100759823733E+00  0.104032648136E+00
  0.107411508527E+00  0.110899810041E+00  0.114501063567E+00  0.118218888574E+00  0.122057015951E+00
  0.126019290842E+00  0.130109675473E+00  0.134332251951E+00  0.138691225012E+00  0.143190924711E+00
  0.147835809007E+00  0.152630466244E+00  0.157579617457E+00  0.162688118506E+00  0.167960961951E+00
  0.173403278641E+00  0.179020338955E+00  0.184817553601E+00  0.190800473913E+00  0.196974791543E+00
  0.203346337428E+00  0.209921079912E+00  0.216705121870E+00  0.223704696667E+00  0.230926162743E+00
  0.238375996610E+00  0.246060783984E+00  0.253987208762E+00  0.262162039493E+00  0.270592112942E+00
  0.279284314299E+00  0.288245553508E+00  0.297482737129E+00  0.307002735053E+00  0.316812341296E+00
  0.326918228019E+00  0.337326891768E+00  0.348044590826E+00  0.359077272439E+00  0.370430488486E+00
  0.382109298039E+00  0.394118155059E+00  0.406460779297E+00  0.419140008250E+00  0.432157627858E+00
  0.445514179383E+00  0.459208739733E+00  0.473238672323E+00  0.487599345362E+00  0.502283814391E+00
  0.517282465778E+00  0.532582617935E+00  0.548168077126E+00  0.564018644996E+00  0.580109575418E+00
  0.596410978896E+00  0.612887173749E+00  0.629495984593E+00  0.646187990327E+00  0.662905726069E+00
  0.679582846219E+00  0.696143259251E+00  0.712500248949E+00  0.728555601686E+00  0.744198765068E+00
  0.759306069709E+00  0.773740053186E+00  0.787348933036E+00  0.799966283827E+00  0.811410981530E+00
  0.821487485984E+00  0.829986538513E+00  0.836686355697E+00  0.841354400636E+00  0.843745821630E+00
  0.843669610131E+00  0.841113542115E+00  0.836127879922E+00  0.828775514363E+00  0.819131926759E+00
  0.807285073998E+00  0.793335172737E+00  0.777394361537E+00  0.759586215252E+00  0.740045084729E+00
  0.718915234541E+00  0.696349754944E+00  0.672509233116E+00  0.647560184078E+00  0.621673272262E+00
  0.595021313163E+00  0.567777263595E+00  0.540112103146E+00  0.512192843233E+00  0.484180702487E+00
  0.456229539048E+00  0.428484597592E+00  0.401081599305E+00  0.374146170936E+00  0.347793578239E+00
  0.322128702904E+00  0.297246183492E+00  0.273230632411E+00  0.250156844407E+00
 ae wavefunction
 -0.102067343189E-02 -0.105306743081E-02 -0.108648666343E-02 -0.112096339119E-02 -0.115653087884E-02
 -0.119322342493E-02 -0.123107639307E-02 -0.127012624421E-02 -0.131041056976E-02 -0.135196812564E-02
 -0.139483886733E-02 -0.143906398587E-02 -0.148468594488E-02 -0.153174851860E-02 -0.158029683097E-02
 -0.163037739578E-02 -0.168203815792E-02 -0.173532853574E-02 -0.179029946455E-02 -0.184700344124E-02
 -0.190549457017E-02 -0.196582861017E-02 -0.202806302282E-02 -0.209225702196E-02 -0.215847162447E-02
 -0.222676970237E-02 -0.229721603615E-02 -0.236987736954E-02 -0.244482246555E-02 -0.252212216391E-02
 -0.260184943989E-02 -0.268407946453E-02 -0.276888966630E-02 -0.285635979411E-02 -0.294657198193E-02
 -0.303961081467E-02 -0.313556339567E-02 -0.323451941557E-02 -0.333657122270E-02 -0.344181389494E-02
 -0.355034531301E-02 -0.366226623528E-02 -0.377768037399E-02 -0.389669447295E-02 -0.401941838664E-02
 -0.414596516076E-02 -0.427645111411E-02 -0.441099592185E-02 -0.454972270005E-02 -0.469275809159E-02
 -0.484023235316E-02 -0.499227944349E-02 -0.514903711273E-02 -0.531064699278E-02 -0.547725468855E-02
 -0.564900987022E-02 -0.582606636606E-02 -0.600858225603E-02 -0.619671996589E-02 -0.639064636160E-02
 -0.659053284404E-02 -0.679655544377E-02 -0.700889491566E-02 -0.722773683321E-02 -0.745327168237E-02
 -0.768569495455E-02 -0.792520723865E-02 -0.817201431175E-02 -0.842632722827E-02 -0.868836240715E-02
 -0.895834171677E-02 -0.923649255723E-02 -0.952304793953E-02 -0.981824656133E-02 -0.101223328786E-01
 -0.104355571729E-01 -0.107581756135E-01 -0.110904503142E-01 -0.114326493829E-01 -0.117850469660E-01
 -0.121479232830E-01 -0.125215646546E-01 -0.129062635198E-01 -0.133023184444E-01 -0.137100341172E-01
 -0.141297213343E-01 -0.145616969707E-01 -0.150062839372E-01 -0.154638111213E-01 -0.159346133117E-01
 -0.164190311043E-01 -0.169174107887E-01 -0.174301042124E-01 -0.179574686235E-01 -0.184998664869E-01
 -0.190576652754E-01 -0.196312372307E-01 -0.202209590952E-01 -0.208272118090E-01 -0.214503801733E-01
 -0.220908524750E-01 -0.227490200707E-01 -0.234252769285E-01 -0.241200191227E-01 -0.248336442798E-01
 -0.255665509720E-01 -0.263191380550E-01 -0.270918039466E-01 -0.278849458416E-01 -0.286989588608E-01
 -0.295342351283E-01 -0.303911627730E-01 -0.312701248519E-01 -0.321714981872E-01 -0.330956521155E-01
 -0.340429471418E-01 -0.350137334950E-01 -0.360083495769E-01 -0.370271203025E-01 -0.380703553228E-01
 -0.391383471254E-01 -0.402313690069E-01 -0.413496729109E-01 -0.424934871236E-01 -0.436630138230E-01
 -0.448584264725E-01 -0.460798670538E-01 -0.473274431309E-01 -0.486012247398E-01 -0.499012410950E-01
 -0.512274771076E-01 -0.525798697073E-01 -0.539583039615E-01 -0.553626089849E-01 -0.567925536336E-01
 -0.582478419772E-01 -0.597281085433E-01 -0.612329133289E-01 -0.627617365739E-01 -0.643139732936E-01
 -0.658889275649E-01 -0.674858065650E-01 -0.691037143612E-01 -0.707416454504E-01 -0.723984780500E-01
 -0.740729671423E-01 -0.757637372766E-01 -0.774692751344E-01 -0.791879218666E-01 -0.809178652118E-01
 -0.826571314093E-01 -0.844035769229E-01 -0.861548799925E-01 -0.879085320372E-01 -0.896618289362E-01
 -0.914118622150E-01 -0.931555101737E-01 -0.948894289954E-01 -0.966100438792E-01 -0.983135402469E-01
 -0.999958550807E-01 -0.101652668452E+00 -0.103279395313E+00 -0.104871177624E+00 -0.106422876902E+00
 -0.107929067285E+00 -0.109384029208E+00 -0.110781743802E+00 -0.112115888139E+00 -0.113379831444E+00
 -0.114566632416E+00 -0.115669037817E+00 -0.116679482464E+00 -0.117590090827E+00 -0.118392680383E+00
 -0.119078766940E+00 -0.119639572126E+00 -0.120066033252E+00 -0.120348815783E+00 -0.120478328634E+00
 -0.120444742556E+00 -0.120238011830E+00 -0.119847899558E+00 -0.119264006784E+00 -0.118475805722E+00
 -0.117472677362E+00 -0.116243953694E+00 -0.114778964837E+00 -0.113067091304E+00 -0.111097821649E+00
 -0.108860815722E+00 -0.106345973733E+00 -0.103543511307E+00 -0.100444040671E+00 -0.970386580890E-01
 -0.933190376116E-01 -0.892775311534E-01 -0.849072748600E-01 -0.802023016535E-01 -0.751576597777E-01
 -0.697695370735E-01 -0.640353906287E-01 -0.579540813368E-01 -0.515260127886E-01 -0.447532737906E-01
 -0.376397836690E-01 -0.301914393643E-01 -0.224162631653E-01 -0.143245497687E-01 -0.592901119326E-02
  0.275508206064E-02  0.117097653178E-01  0.209142512709E-01  0.303448105329E-01  0.399746629520E-01
  0.497738814282E-01  0.597093100531E-01  0.697444986259E-01  0.798396560228E-01  0.899516254827E-01
  0.100033885515E+00  0.110036580694E+00  0.119906586926E+00  0.129587615749E+00  0.139020361752E+00
  0.148142696376E+00  0.156889910394E+00  0.165195006492E+00  0.172989042861E+00  0.180201528476E+00
  0.186760870596E+00  0.192594874731E+00  0.197631296825E+00  0.201798446733E+00  0.205025841261E+00
  0.207244904232E+00  0.208389710208E+00  0.208397767665E+00  0.207210836534E+00  0.204775774107E+00
  0.201045402282E+00  0.195979388107E+00  0.189545128433E+00  0.181718628352E+00  0.172485361934E+00
  0.161841102618E+00  0.149792709526E+00  0.136358854995E+00  0.121570677865E+00  0.105472346559E+00
  0.881215158338E-01  0.695896613789E-01  0.499622770240E-01  0.293389202191E-01  0.783309227172E-02
 -0.144280596373E-01 -0.373042315429E-01 -0.606426554586E-01 -0.842790057006E-01 -0.108038519339E+00
 -0.131737310078E+00 -0.155183820397E+00 -0.178180321029E+00 -0.200524361129E+00 -0.222010135538E+00
 -0.242429876728E+00 -0.261575528728E+00 -0.279240962171E+00 -0.295224740300E+00 -0.309333119943E+00
 -0.321382897257E+00 -0.331203915358E+00 -0.338641266015E+00 -0.343557276283E+00 -0.345833325624E+00
 -0.345371480448E+00 -0.342095898379E+00 -0.335953945942E+00 -0.326916983080E+00 -0.314980786683E+00
 -0.300165605768E+00 -0.282515858239E+00 -0.262099491788E+00 -0.239007039942E+00 -0.213350409434E+00
 -0.185261437903E+00 -0.154890262060E+00 -0.122403536205E+00 -0.879825396337E-01 -0.518212091542E-01
 -0.141241300816E-01  0.248954843141E-01  0.650177983268E-01  0.106018321107E+00  0.147669815609E+00
  0.189744131785E+00  0.232013949005E+00  0.274254414768E+00  0.316244668974E+00  0.357769244510E+00
  0.398619338857E+00  0.438593952015E+00  0.477500890859E+00  0.515157642052E+00  0.551392118431E+00
  0.586043285599E+00  0.618961676251E+00  0.650009799619E+00  0.679062452818E+00  0.706006940315E+00
  0.730743208329E+00  0.753183902893E+00  0.773254364170E+00  0.790892573784E+00  0.806049075896E+00
  0.818686894530E+00  0.828781467261E+00  0.836320610433E+00  0.841304522331E+00  0.843745821630E+00
  0.843669610131E+00  0.841113542115E+00  0.836127879922E+00  0.828775514363E+00  0.819131926759E+00
  0.807285073998E+00  0.793335172737E+00  0.777394361537E+00  0.759586215252E+00  0.740045084729E+00
  0.718915234541E+00  0.696349754944E+00  0.672509233116E+00  0.647560184078E+00  0.621673272262E+00
  0.595021313163E+00  0.567777263595E+00  0.540112103146E+00  0.512192843233E+00  0.484180702487E+00
  0.456229539048E+00  0.428484597592E+00  0.401081599305E+00  0.374146170936E+00  0.347793578239E+00
  0.322128702904E+00  0.297246183492E+00  0.273230632411E+00  0.250156844407E+00
 pseudo wavefunction
  0.837834958104E-04  0.865079260792E-04  0.893209480236E-04  0.922254424239E-04  0.952243837362E-04
  0.983208431384E-04  0.101517991676E-03  0.104819103507E-03  0.108227559260E-03  0.111746849491E-03
  0.115380578260E-03  0.119132466824E-03  0.123006357444E-03  0.127006217322E-03  0.131136142665E-03
  0.135400362877E-03  0.139803244892E-03  0.144349297646E-03  0.149043176695E-03  0.153889688979E-03
  0.158893797753E-03  0.164060627659E-03  0.169395469984E-03  0.174903788071E-03  0.180591222921E-03
  0.186463598963E-03  0.192526930023E-03  0.198787425483E-03  0.205251496636E-03  0.211925763256E-03
  0.218817060375E-03  0.225932445283E-03  0.233279204757E-03  0.240864862519E-03  0.248697186946E-03
  0.256784199023E-03  0.265134180556E-03  0.273755682655E-03  0.282657534492E-03  0.291848852341E-03
  0.301339048915E-03  0.311137843002E-03  0.321255269425E-03  0.331701689311E-03  0.342487800707E-03
  0.353624649533E-03  0.365123640895E-03  0.376996550763E-03  0.389255538036E-03  0.401913156985E-03
  0.414982370118E-03  0.428476561450E-03  0.442409550211E-03  0.456795604999E-03  0.471649458388E-03
  0.486986322022E-03  0.502821902187E-03  0.519172415899E-03  0.536054607512E-03  0.553485765862E-03
  0.571483741977E-03  0.590066967354E-03  0.609254472838E-03  0.629065908107E-03  0.649521561799E-03
  0.670642382286E-03  0.692449999132E-03  0.714966745236E-03  0.738215679708E-03  0.762220611485E-03
  0.787006123707E-03  0.812597598898E-03  0.839021244958E-03  0.866304122001E-03  0.894474170068E-03
  0.923560237741E-03  0.953592111683E-03  0.984600547145E-03  0.101661729946E-02  0.104967515657E-02
  0.108380797259E-02  0.111905070250E-02  0.115543943789E-02  0.119301144401E-02  0.123180519784E-02
  0.127186042755E-02  0.131321815317E-02  0.135592072859E-02  0.140001188495E-02  0.144553677540E-02
  0.149254202137E-02  0.154107576030E-02  0.159118769492E-02  0.164292914417E-02  0.169635309577E-02
  0.175151426044E-02  0.180846912795E-02  0.186727602499E-02  0.192799517487E-02  0.199068875921E-02
  0.205542098160E-02  0.212225813338E-02  0.219126866150E-02  0.226252323862E-02  0.233609483550E-02
  0.241205879572E-02  0.249049291279E-02  0.257147750992E-02  0.265509552215E-02  0.274143258140E-02
  0.283057710405E-02  0.292262038160E-02  0.301765667404E-02  0.311578330647E-02  0.321710076871E-02
  0.332171281825E-02  0.342972658645E-02  0.354125268830E-02  0.365640533566E-02  0.377530245423E-02
  0.389806580430E-02  0.402482110545E-02  0.415569816529E-02  0.429083101238E-02  0.443035803346E-02
  0.457442211521E-02  0.472317079050E-02  0.487675638953E-02  0.503533619577E-02  0.519907260703E-02
  0.536813330178E-02  0.554269141079E-02  0.572292569448E-02  0.590902072591E-02  0.610116707982E-02
  0.629956152772E-02  0.650440723942E-02  0.671591399101E-02  0.693429837973E-02  0.715978404567E-02
  0.739260190077E-02  0.763299036531E-02  0.788119561192E-02  0.813747181771E-02  0.840208142447E-02
  0.867529540737E-02  0.895739355240E-02  0.924866474277E-02  0.954940725472E-02  0.985992906283E-02
  0.101805481553E-01  0.105115928596E-01  0.108534021783E-01  0.112063261365E-01  0.115707261395E-01
  0.119469753436E-01  0.123354590371E-01  0.127365750354E-01  0.131507340878E-01  0.135783602979E-01
  0.140198915577E-01  0.144757799958E-01  0.149464924397E-01  0.154325108940E-01  0.159343330332E-01
  0.164524727112E-01  0.169874604865E-01  0.175398441657E-01  0.181101893632E-01  0.186990800801E-01
  0.193071193016E-01  0.199349296132E-01  0.205831538378E-01  0.212524556930E-01  0.219435204693E-01
  0.226570557310E-01  0.233937920394E-01  0.241544836993E-01  0.249399095299E-01  0.257508736607E-01
  0.265882063527E-01  0.274527648469E-01  0.283454342393E-01  0.292671283847E-01  0.302187908300E-01
  0.312013957768E-01  0.322159490755E-01  0.332634892518E-01  0.343450885653E-01  0.354618541035E-01
  0.366149289094E-01  0.378054931470E-01  0.390347653027E-01  0.403040034269E-01  0.416145064136E-01
  0.429676153226E-01  0.443647147426E-01  0.458072341996E-01  0.472966496079E-01  0.488344847700E-01
  0.504223129218E-01  0.520617583288E-01  0.537544979317E-01  0.555022630447E-01  0.573068411074E-01
  0.591700774918E-01  0.610938773661E-01  0.630802076173E-01  0.651310988335E-01  0.672486473486E-01
  0.694350173500E-01  0.716924430519E-01  0.740232309357E-01  0.764297620591E-01  0.789144944357E-01
  0.814799654875E-01  0.841287945709E-01  0.868636855788E-01  0.896874296211E-01  0.926029077834E-01
  0.956130939675E-01  0.987210578146E-01  0.101929967712E+00  0.105243093886E+00  0.108663811580E+00
  0.112195604327E+00  0.115842067297E+00  0.119606910752E+00  0.123493963577E+00  0.127507176906E+00
  0.131650627843E+00  0.135928523260E+00  0.140345203699E+00  0.144905147343E+00  0.149612974087E+00
  0.154473449677E+00  0.159491489931E+00  0.164672165027E+00  0.170020703860E+00  0.175542498449E+00
  0.181243108387E+00  0.187128265331E+00  0.193203877503E+00  0.199476034196E+00  0.205951010254E+00
  0.212635270512E+00  0.219535474158E+00  0.226658478991E+00  0.234011345522E+00  0.241601340887E+00
  0.249435942506E+00  0.257522841427E+00  0.265869945282E+00  0.274485380765E+00  0.283377495531E+00
  0.292554859399E+00  0.302026264724E+00  0.311800725777E+00  0.321887476944E+00  0.332295969541E+00
  0.343035866988E+00  0.354117038061E+00  0.365549547889E+00  0.377343646313E+00  0.389509753169E+00
  0.402058439980E+00  0.415000407475E+00  0.428346458253E+00  0.442107463824E+00  0.456294325123E+00
  0.470917925477E+00  0.485989074851E+00  0.501518444029E+00  0.517516487180E+00  0.533993351085E+00
  0.550958769000E+00  0.568421936905E+00  0.586391369578E+00  0.604874733566E+00  0.623878653814E+00
  0.643408490256E+00  0.663468080261E+00  0.684059442358E+00  0.705182436155E+00  0.726834372834E+00
  0.749009570089E+00  0.771698844807E+00  0.794888936267E+00  0.818561852147E+00  0.842694129195E+00
  0.867256000111E+00  0.892210458015E+00  0.917512209964E+00  0.943106511321E+00  0.968927873571E+00
  0.994898639459E+00  0.102092742127E+01  0.104690740085E+01  0.107271449381E+01  0.109820538527E+01
  0.112321545130E+01  0.114755658820E+01  0.117101498237E+01  0.119334886622E+01  0.121428632074E+01
  0.123352320393E+01  0.125072130521E+01  0.126550685071E+01  0.127746951160E+01  0.128616209775E+01
  0.129110115093E+01  0.129176868460E+01  0.128761534874E+01  0.127806532641E+01  0.126252328945E+01
  0.124038375056E+01  0.121104314123E+01  0.117391491383E+01  0.112844790331E+01  0.107414808092E+01
  0.101066075412E+01  0.937949980608E+00  0.856111823124E+00  0.765320964249E+00  0.000000000000E+00
  0.000000000000E+00  0.000000000000E+00  0.000000000000E+00  0.000000000000E+00  0.000000000000E+00
  0.000000000000E+00  0.000000000000E+00  0.000000000000E+00  0.000000000000E+00  0.000000000000E+00
  0.000000000000E+00  0.000000000000E+00  0.000000000000E+00  0.000000000000E+00  0.000000000000E+00
  0.000000000000E+00  0.000000000000E+00  0.000000000000E+00  0.000000000000E+00  0.000000000000E+00
  0.000000000000E+00  0.000000000000E+00  0.000000000000E+00  0.000000000000E+00
 ae wavefunction
 -0.187080770430E-02 -0.193018315131E-02 -0.199143776436E-02 -0.205463067592E-02 -0.211982285744E-02
 -0.218707717519E-02 -0.225645844770E-02 -0.232803350474E-02 -0.240187124814E-02 -0.247804271419E-02
 -0.255662113785E-02 -0.263768201877E-02 -0.272130318914E-02 -0.280756488338E-02 -0.289654980979E-02
 -0.298834322416E-02 -0.308303300536E-02 -0.318070973298E-02 -0.328146676703E-02 -0.338540032984E-02
 -0.349260959003E-02 -0.360319674872E-02 -0.371726712806E-02 -0.383492926189E-02 -0.395629498892E-02
 -0.408147954810E-02 -0.421060167650E-02 -0.434378370960E-02 -0.448115168404E-02 -0.462283544293E-02
 -0.476896874361E-02 -0.491968936810E-02 -0.507513923602E-02 -0.523546452027E-02 -0.540081576522E-02
 -0.557134800767E-02 -0.574722090046E-02 -0.592859883871E-02 -0.611565108886E-02 -0.630855192036E-02
 -0.650748074000E-02 -0.671262222905E-02 -0.692416648295E-02 -0.714230915373E-02 -0.736725159501E-02
 -0.759920100959E-02 -0.783837059957E-02 -0.808497971893E-02 -0.833925402859E-02 -0.860142565366E-02
 -0.887173334310E-02 -0.915042263136E-02 -0.943774600219E-02 -0.973396305415E-02 -0.100393406681E-01
 -0.103541531759E-01 -0.106786825310E-01 -0.110132184798E-01 -0.113580587338E-01 -0.117135091434E-01
 -0.120798838706E-01 -0.124575055634E-01 -0.128467055290E-01 -0.132478239065E-01 -0.136612098390E-01
 -0.140872216442E-01 -0.145262269829E-01 -0.149786030252E-01 -0.154447366141E-01 -0.159250244250E-01
 -0.164198731216E-01 -0.169296995067E-01 -0.174549306669E-01 -0.179960041122E-01 -0.185533679065E-01
 -0.191274807914E-01 -0.197188123001E-01 -0.203278428608E-01 -0.209550638889E-01 -0.216009778667E-01
 -0.222660984084E-01 -0.229509503099E-01 -0.236560695821E-01 -0.243820034643E-01 -0.251293104187E-01
 -0.258985601014E-01 -0.266903333098E-01 -0.275052219036E-01 -0.283438286969E-01 -0.292067673192E-01
 -0.300946620438E-01 -0.310081475784E-01 -0.319478688179E-01 -0.329144805541E-01 -0.339086471404E-01
 -0.349310421075E-01 -0.359823477265E-01 -0.370632545154E-01 -0.381744606859E-01 -0.393166715244E-01
 -0.404905987044E-01 -0.416969595246E-01 -0.429364760676E-01 -0.442098742745E-01 -0.455178829288E-01
 -0.468612325448E-01 -0.482406541535E-01 -0.496568779798E-01 -0.511106320039E-01 -0.526026404004E-01
 -0.541336218470E-01 -0.557042876946E-01 -0.573153399924E-01 -0.589674693566E-01 -0.606613526772E-01
 -0.623976506508E-01 -0.641770051310E-01 -0.660000362873E-01 -0.678673395604E-01 -0.697794824046E-01
 -0.717370008060E-01 -0.737403955653E-01 -0.757901283333E-01 -0.778866173873E-01 -0.800302331374E-01
 -0.822212933481E-01 -0.844600580651E-01 -0.867467242333E-01 -0.890814199934E-01 -0.914641986445E-01
 -0.938950322606E-01 -0.963738049464E-01 -0.989003057229E-01 -0.101474221028E+00 -0.104095126821E+00
 -0.106762480282E+00 -0.109475611093E+00 -0.112233712291E+00 -0.115035830685E+00 -0.117880856831E+00
 -0.120767514559E+00 -0.123694350038E+00 -0.126659720393E+00 -0.129661781856E+00 -0.132698477469E+00
 -0.135767524326E+00 -0.138866400376E+00 -0.141992330792E+00 -0.145142273919E+00 -0.148312906819E+00
 -0.151500610446E+00 -0.154701454467E+00 -0.157911181772E+00 -0.161125192706E+00 -0.164338529082E+00
 -0.167545858018E+00 -0.170741455667E+00 -0.173919190910E+00 -0.177072509095E+00 -0.180194415910E+00
 -0.183277461498E+00 -0.186313724916E+00 -0.189294799083E+00 -0.192211776341E+00 -0.195055234784E+00
 -0.197815225540E+00 -0.200481261163E+00 -0.203042305368E+00 -0.205486764296E+00 -0.207802479572E+00
 -0.209976723388E+00 -0.211996195901E+00 -0.213847025230E+00 -0.215514770372E+00 -0.216984427356E+00
 -0.218240439006E+00 -0.219266708667E+00 -0.220046618308E+00 -0.220563051381E+00 -0.220798420892E+00
 -0.220734703115E+00 -0.220353477404E+00 -0.219635972578E+00 -0.218563120356E+00 -0.217115616325E+00
 -0.215273988930E+00 -0.213018676967E+00 -0.210330116057E+00 -0.207188834561E+00 -0.203575559376E+00
 -0.199471332031E+00 -0.194857635449E+00 -0.189716531709E+00 -0.184030811082E+00 -0.177784152542E+00
 -0.170961295879E+00 -0.163548225447E+00 -0.155532365468E+00 -0.146902786704E+00 -0.137650424157E+00
 -0.127768305321E+00 -0.117251788317E+00 -0.106098809078E+00 -0.943101365138E-01 -0.818896343740E-01
 -0.688445282557E-01 -0.551856759429E-01 -0.409278389590E-01 -0.260899529231E-01 -0.106953940112E-01
  0.522776143152E-02  0.216464872732E-01  0.385225712209E-01  0.558123949532E-01  0.734667339811E-01
  0.914305804421E-01  0.109642992184E+00  0.128036971920E+00  0.146539381027E+00  0.165070893622E+00
  0.183545997763E+00  0.201873051601E+00  0.219954402969E+00  0.237686580777E+00  0.254960565775E+00
  0.271662146725E+00  0.287672366220E+00  0.302868058844E+00  0.317122483403E+00  0.330306050537E+00
  0.342287146755E+00  0.352933055439E+00  0.362110974441E+00  0.369689128640E+00  0.375537974390E+00
  0.379531491275E+00  0.381548555067E+00  0.381474384254E+00  0.379202050868E+00  0.374634044646E+00
  0.367683877694E+00  0.358277714891E+00  0.346356013196E+00  0.331875150865E+00  0.314809025449E+00
  0.295150597268E+00  0.272913353019E+00  0.248132662365E+00  0.220866998895E+00  0.191198995843E+00
  0.159236306706E+00  0.125112241249E+00  0.889861485218E-01  0.510435200066E-01  0.114957874871E-01
 -0.294202088720E-01 -0.714431066408E-01 -0.114288285290E+00 -0.157649527296E+00 -0.201201077823E+00
 -0.244600065370E+00 -0.287489182373E+00 -0.329499459400E+00 -0.370252956982E+00 -0.409365316359E+00
 -0.446448370628E+00 -0.481113291913E+00 -0.512974750436E+00 -0.541656100045E+00 -0.566795006240E+00
 -0.588048799624E+00 -0.605099221315E+00 -0.617656621838E+00 -0.625463781199E+00 -0.628299433437E+00
 -0.625981470747E+00 -0.618369738944E+00 -0.605368320576E+00 -0.586927220237E+00 -0.563043401441E+00
 -0.533761162000E+00 -0.499171866582E+00 -0.459413078191E+00 -0.414667145606E+00 -0.365159313098E+00
 -0.311155423684E+00 -0.252959288947E+00 -0.190909797642E+00 -0.125377832396E+00 -0.567630591819E-01
  0.145093515989E-01  0.879920202487E-01  0.163218623834E+00  0.239707094676E+00  0.316962719122E+00
  0.394481110194E+00  0.471751032932E+00  0.548257066143E+00  0.623482089535E+00  0.696909589232E+00
  0.768025783846E+00  0.836321575810E+00  0.901294343821E+00  0.962449597926E+00  0.101930252605E+01
  0.107137946640E+01  0.111821934378E+01  0.115937511039E+01  0.119441523271E+01  0.122292526828E+01
  0.124450957994E+01  0.125879324107E+01  0.126542419412E+01  0.126407573259E+01  0.125444938162E+01
  0.123627825192E+01  0.120933093091E+01  0.117341595839E+01  0.112838690940E+01  0.107414808092E+01
  0.101066075412E+01  0.937949980608E+00  0.856111823124E+00  0.765320964249E+00  0.000000000000E+00
  0.000000000000E+00  0.000000000000E+00  0.000000000000E+00  0.000000000000E+00  0.000000000000E+00
  0.000000000000E+00  0.000000000000E+00  0.000000000000E+00  0.000000000000E+00  0.000000000000E+00
  0.000000000000E+00  0.000000000000E+00  0.000000000000E+00  0.000000000000E+00  0.000000000000E+00
  0.000000000000E+00  0.000000000000E+00  0.000000000000E+00  0.000000000000E+00  0.000000000000E+00
  0.000000000000E+00  0.000000000000E+00  0.000000000000E+00  0.000000000000E+00
 pseudo wavefunction
  0.312752130940E-08  0.333422669475E-08  0.355459373482E-08  0.378952536115E-08  0.403998418218E-08
  0.430699642745E-08  0.459165615247E-08  0.489512972150E-08  0.521866058662E-08  0.556357438263E-08
  0.593128435871E-08  0.632329716909E-08  0.674121904637E-08  0.718676238291E-08  0.766175274721E-08
  0.816813636395E-08  0.870798808847E-08  0.928351990828E-08  0.989709000644E-08  0.105512124240E-07
  0.112485673609E-07  0.119920121582E-07  0.127845930052E-07  0.136295574212E-07  0.145303675619E-07
  0.154907144052E-07  0.165145328745E-07  0.176060179618E-07  0.187696419160E-07  0.200101725679E-07
  0.213326928654E-07  0.227426217008E-07  0.242457361140E-07  0.258481949631E-07  0.275565641600E-07
  0.293778435734E-07  0.313194957103E-07  0.333894762924E-07  0.355962668541E-07  0.379489094950E-07
  0.404570439283E-07  0.431309469793E-07  0.459815746930E-07  0.490206072257E-07  0.522604967034E-07
  0.557145182424E-07  0.593968243438E-07  0.633225028809E-07  0.675076389207E-07  0.719693806307E-07
  0.767260095420E-07  0.817970154555E-07  0.872031762997E-07  0.929666432659E-07  0.991110315707E-07
  0.105661517217E-06  0.112644940148E-06  0.120089914225E-06  0.128026944467E-06  0.136488552042E-06
  0.145509407520E-06  0.155126472929E-06  0.165379153209E-06  0.176309457664E-06  0.187962172093E-06
  0.200385042296E-06  0.213628969705E-06  0.227748219947E-06  0.242800645196E-06  0.258847921211E-06
  0.275955800048E-06  0.294194379474E-06  0.313638390178E-06  0.334367501982E-06  0.356466650271E-06
  0.380026384010E-06  0.405143236757E-06  0.431920122202E-06  0.460466755839E-06  0.490900104518E-06
  0.523344865699E-06  0.557933978389E-06  0.594809167844E-06  0.634121526270E-06  0.676032131907E-06
  0.720712709030E-06  0.768346331564E-06  0.819128173215E-06  0.873266307162E-06  0.930982558619E-06
  0.992513413733E-06  0.105811098856E-05  0.112804406207E-05  0.120259917744E-05  0.128208181615E-05
  0.136681764960E-05  0.145715387356E-05  0.155346063073E-05  0.165613252734E-05  0.176559025004E-05
  0.188228228955E-05  0.200668677830E-05  0.213931344954E-05  0.228070572586E-05  0.243144294579E-05
  0.259214273755E-05  0.276346354970E-05  0.294610734899E-05  0.314082249658E-05  0.334840681430E-05
  0.356971085360E-05  0.380564138054E-05  0.405716509104E-05  0.432531257180E-05  0.461118252288E-05
  0.491594625939E-05  0.524085251075E-05  0.558723253704E-05  0.595650558355E-05  0.635018469581E-05
  0.676988291892E-05  0.721731990657E-05  0.769432896691E-05  0.820286457397E-05  0.874501037561E-05
  0.932298773062E-05  0.993916481002E-05  0.105960662999E-04  0.112963837455E-04  0.120429865787E-04
  0.128389338747E-04  0.136874868851E-04  0.145921223998E-04  0.155565469914E-04  0.165847122014E-04
  0.176808307296E-04  0.188493936938E-04  0.200951890294E-04  0.214233211057E-04  0.228392316376E-04
  0.243487219802E-04  0.259579768957E-04  0.276735898912E-04  0.295025902313E-04  0.314524717342E-04
  0.335312234726E-04  0.357473625012E-04  0.381099687480E-04  0.406287222106E-04  0.433139426100E-04
  0.461766316645E-04  0.492285181565E-04  0.524821059776E-04  0.559507253464E-04  0.596485874113E-04
  0.635908424600E-04  0.677936419748E-04  0.722742047862E-04  0.770508875982E-04  0.821432601701E-04
  0.875721854661E-04  0.933599050975E-04  0.995301304085E-04  0.106108139578E-03  0.113120881134E-03
  0.120597084303E-03  0.128567376647E-03  0.137064409468E-03  0.146122991494E-03  0.155780231385E-03
  0.166075689656E-03  0.177051540623E-03  0.188752745036E-03  0.201227234114E-03  0.214526105718E-03
  0.228703833470E-03  0.243818489679E-03  0.259931982957E-03  0.277110311526E-03  0.295423833226E-03
  0.314947553328E-03  0.335761431326E-03  0.357950707961E-03  0.381606253791E-03  0.406824940749E-03
  0.433710038167E-03  0.462371634907E-03  0.492927089288E-03  0.525501508641E-03  0.560228260443E-03
  0.597249517085E-03  0.636716836498E-03  0.678791780958E-03  0.723646576605E-03  0.771464816299E-03
  0.822442208681E-03  0.876787376433E-03  0.934722706953E-03  0.996485258880E-03  0.106232772807E-02
  0.113251947696E-02  0.120734763130E-02  0.128711824889E-02  0.137215756462E-02  0.146281331715E-02
  0.155945616222E-02  0.166248117833E-02  0.177230947068E-02  0.188938987977E-02  0.201420080131E-02
  0.214725212466E-02  0.228908729731E-02  0.244028552350E-02  0.260146410550E-02  0.277328093675E-02
  0.295643715623E-02  0.315167997449E-02  0.335980568212E-02  0.358166285198E-02  0.381815574755E-02
  0.407024794998E-02  0.433896621774E-02  0.462540459296E-02  0.493072876985E-02  0.525618074113E-02
  0.560308373951E-02  0.597284749191E-02  0.636697380546E-02  0.678706250487E-02  0.723481774219E-02
  0.771205470072E-02  0.822070671616E-02  0.876283283893E-02  0.934062586314E-02  0.995642084815E-02
  0.106127041607E-01  0.113121230658E-01  0.120574958964E-01  0.128518228328E-01  0.136982973231E-01
  0.146003181787E-01  0.155615023778E-01  0.165856986118E-01  0.176770016102E-01  0.188397672802E-01
  0.200786286961E-01  0.213985129770E-01  0.228046590867E-01  0.243026365935E-01  0.258983654243E-01
  0.275981366451E-01  0.294086343028E-01  0.313369583543E-01  0.333906487104E-01  0.355777104176E-01
  0.379066399921E-01  0.403864529198E-01  0.430267123238E-01  0.458375587967E-01  0.488297413798E-01
  0.520146496644E-01  0.554043469722E-01  0.590116045588E-01  0.628499367626E-01  0.669336370026E-01
  0.712778145020E-01  0.758984315878E-01  0.808123413855E-01  0.860373256895E-01  0.915921327545E-01
  0.974965147033E-01  0.103771264202E+00  0.110438249990E+00  0.117520450809E+00  0.125041987175E+00
  0.133028150410E+00  0.141505428219E+00  0.150501526061E+00  0.160045383424E+00  0.170167184049E+00
  0.180898359018E+00  0.192271581525E+00  0.204320752000E+00  0.217080972185E+00  0.230588506559E+00
  0.244880729433E+00  0.259996055880E+00  0.275973854494E+00  0.292854339876E+00  0.310678442552E+00
  0.329487653905E+00  0.349323843520E+00  0.370229046181E+00  0.392245215586E+00  0.415413941595E+00
  0.439776127626E+00  0.465371624470E+00  0.492238816437E+00  0.520414155248E+00  0.549931636437E+00
  0.580822212219E+00  0.613113133642E+00  0.646827213473E+00  0.681981999369E+00  0.718588844620E+00
  0.756651860750E+00  0.796166732709E+00  0.837119372932E+00  0.879484385406E+00  0.923223304832E+00
  0.968282569267E+00  0.101459117742E+01  0.106205797451E+01  0.111056850384E+01  0.115998135627E+01
  0.121012394723E+01  0.126078765406E+01  0.131172225591E+01  0.136262963877E+01  0.141315676218E+01
  0.146296940192E+01  0.151201835528E+01  0.156034352253E+01  0.160800120185E+01  0.000000000000E+00
  0.000000000000E+00  0.000000000000E+00  0.000000000000E+00  0.000000000000E+00  0.000000000000E+00
  0.000000000000E+00  0.000000000000E+00  0.000000000000E+00  0.000000000000E+00  0.000000000000E+00
  0.000000000000E+00  0.000000000000E+00  0.000000000000E+00  0.000000000000E+00  0.000000000000E+00
  0.000000000000E+00  0.000000000000E+00  0.000000000000E+00  0.000000000000E+00  0.000000000000E+00
  0.000000000000E+00  0.000000000000E+00  0.000000000000E+00  0.000000000000E+00
 ae wavefunction
  0.187745035510E-05  0.198870361378E-05  0.210614614758E-05  0.223014698993E-05  0.236109620617E-05
  0.249940617300E-05  0.264551293412E-05  0.279987763649E-05  0.296298805248E-05  0.313536019343E-05
  0.331754002012E-05  0.351010525681E-05  0.371366731463E-05  0.392887333226E-05  0.415640834039E-05
  0.439699755832E-05  0.465140883101E-05  0.492045521526E-05  0.520499772459E-05  0.550594824295E-05
  0.582427261765E-05  0.616099394297E-05  0.651719604672E-05  0.689402719210E-05  0.729270400887E-05
  0.771451566804E-05  0.816082831565E-05  0.863308978197E-05  0.913283458331E-05  0.966168923543E-05
  0.102213778976E-04  0.108137283691E-04  0.114406784593E-04  0.121042827561E-04  0.128067198179E-04
  0.135502998145E-04  0.143374726474E-04  0.151708365786E-04  0.160531474004E-04  0.169873281810E-04
  0.179764796212E-04  0.190238910632E-04  0.201330521897E-04  0.213076654600E-04  0.225516593281E-04
  0.238692022930E-04  0.252647178329E-04  0.267429002812E-04  0.283087317018E-04  0.299674998272E-04
  0.317248171284E-04  0.335866410849E-04  0.355592957330E-04  0.376494945713E-04  0.398643649100E-04
  0.422114737530E-04  0.446988553109E-04  0.473350402454E-04  0.501290867544E-04  0.530906136129E-04
  0.562298352904E-04  0.595575992761E-04  0.630854257474E-04  0.668255497288E-04  0.707909658940E-04
  0.749954761755E-04  0.794537403556E-04  0.841813298214E-04  0.891947846782E-04  0.945116744300E-04
  0.100150662441E-03  0.106131574415E-03  0.112475471128E-03  0.119204725686E-03  0.126343105569E-03
  0.133915859761E-03  0.141949811262E-03  0.150473455316E-03  0.159517063693E-03  0.169112795380E-03
  0.179294814078E-03  0.190099412892E-03  0.201565146644E-03  0.213732972270E-03  0.226646397757E-03
  0.240351640123E-03  0.254897792977E-03  0.270337004201E-03  0.286724664340E-03  0.304119606314E-03
  0.322584317097E-03  0.342185162050E-03  0.362992622598E-03  0.385081548027E-03  0.408531422163E-03
  0.433426645780E-03  0.459856835571E-03  0.487917140613E-03  0.517708577257E-03  0.549338383434E-03
  0.582920393416E-03  0.618575434096E-03  0.656431743932E-03  0.696625415710E-03  0.739300864344E-03
  0.784611320996E-03  0.832719354809E-03  0.883797423626E-03  0.938028455114E-03  0.995606459729E-03
  0.105673717704E-02  0.112163875697E-02  0.119054247750E-02  0.126369350055E-02  0.134135166760E-02
  0.142379233686E-02  0.151130726364E-02  0.160420552572E-02  0.170281449550E-02  0.180748086068E-02
  0.191857169531E-02  0.203647558294E-02  0.216160379369E-02  0.229439151694E-02  0.243529915136E-02
  0.258481365388E-02  0.274344994923E-02  0.291175240139E-02  0.309029634847E-02  0.327968970202E-02
  0.348057461197E-02  0.369362919790E-02  0.391956934736E-02  0.415915058144E-02  0.441316998761E-02
  0.468246821965E-02  0.496793156362E-02  0.527049406891E-02  0.559113974251E-02  0.593090480412E-02
  0.629087999933E-02  0.667221296682E-02  0.707611065548E-02  0.750384178559E-02  0.795673934801E-02
  0.843620313358E-02  0.894370228421E-02  0.948077785549E-02  0.100490453793E-01  0.106501974132E-01
  0.112860060628E-01  0.119583254578E-01  0.126690941667E-01  0.134203375260E-01  0.142141698618E-01
  0.150527965788E-01  0.159385160861E-01  0.168737215297E-01  0.178609022968E-01  0.189026452531E-01
  0.200016356717E-01  0.211606578084E-01  0.223825950740E-01  0.236704297487E-01  0.250272421826E-01
  0.264562094175E-01  0.279606031634E-01  0.295437870576E-01  0.312092131279E-01  0.329604173770E-01
  0.348010144007E-01  0.367346909458E-01  0.387651983072E-01  0.408963434626E-01  0.431319788323E-01
  0.454759905501E-01  0.479322851263E-01  0.505047743776E-01  0.531973584952E-01  0.560139071210E-01
  0.589582382955E-01  0.620340951419E-01  0.652451201489E-01  0.685948269152E-01  0.720865692207E-01
  0.757235072917E-01  0.795085711348E-01  0.834444208182E-01  0.875334035927E-01  0.917775077528E-01
  0.961783131564E-01  0.100736938339E+00  0.105453984177E+00  0.110329474090E+00  0.115362790786E+00
  0.120552609600E+00  0.125896828515E+00  0.131392494991E+00  0.137035729786E+00  0.142821648008E+00
  0.148744277693E+00  0.154796476287E+00  0.160969845493E+00  0.167254644994E+00  0.173639705711E+00
  0.180112343303E+00  0.186658272719E+00  0.193261524718E+00  0.199904365288E+00  0.206567218961E+00
  0.213228596964E+00  0.219865031106E+00  0.226451014153E+00  0.232958947396E+00  0.239359096064E+00
  0.245619553424E+00  0.251706214822E+00  0.257582763607E+00  0.263210671739E+00  0.268549218749E+00
  0.273555533378E+00  0.278184662445E+00  0.282389671268E+00  0.286121779145E+00  0.289330532178E+00
  0.291964014312E+00  0.293969096264E+00  0.295291721470E+00  0.295877228260E+00  0.295670707986E+00
  0.294617399236E+00  0.292663118355E+00  0.289754726147E+00  0.285840630113E+00  0.280871320911E+00
  0.274799941139E+00  0.267582883962E+00  0.259180418535E+00  0.249557338546E+00  0.238683629529E+00
  0.226535149816E+00  0.213094319150E+00  0.198350808060E+00  0.182302220110E+00  0.164954758146E+00
  0.146323864650E+00  0.126434825365E+00  0.105323324529E+00  0.830359393662E-01  0.596305611390E-01
  0.351767299015E-01  0.975587035121E-02 -0.165385834443E-01 -0.436011862586E-01 -0.713146146091E-01
 -0.995499466649E-01 -0.128167102506E+00 -0.157015458299E+00 -0.185934643915E+00 -0.214755519302E+00
 -0.243301294136E+00 -0.271388708984E+00 -0.298829154405E+00 -0.325429612275E+00 -0.350993409988E+00
 -0.375320984644E+00 -0.398211051883E+00 -0.419462543240E+00 -0.438877294946E+00 -0.456263017822E+00
 -0.471436012170E+00 -0.484223416198E+00 -0.494465082827E+00 -0.502015249264E+00 -0.506744088234E+00
 -0.508539141439E+00 -0.507306584452E+00 -0.502972257456E+00 -0.495482406235E+00 -0.484804099661E+00
 -0.470925313700E+00 -0.453854691605E+00 -0.433621003535E+00 -0.410272337216E+00 -0.383875055843E+00
 -0.354512561370E+00 -0.322283901706E+00 -0.287302259360E+00 -0.249693357104E+00 -0.209593813475E+00
 -0.167149477589E+00 -0.122513769045E+00 -0.758460449977E-01 -0.273100128881E-01  0.229277958262E-01
  0.746994782191E-01  0.127837128211E+00  0.182174111736E+00  0.237546241435E+00  0.293792844615E+00
  0.350757720807E+00  0.408289986091E+00  0.466244804999E+00  0.524484012995E+00  0.582876635309E+00
  0.641299309931E+00  0.699636623691E+00  0.757781370344E+00  0.815634738952E+00  0.873106440184E+00
  0.930114778791E+00  0.986586683164E+00  0.104245770859E+01  0.109767203833E+01  0.115218251531E+01
  0.120595074467E+01  0.125894731017E+01  0.131115214748E+01  0.136255511088E+01  0.141315676218E+01
  0.146296940192E+01  0.151201835528E+01  0.156034352253E+01  0.160800120185E+01  0.000000000000E+00
  0.000000000000E+00  0.000000000000E+00  0.000000000000E+00  0.000000000000E+00  0.000000000000E+00
  0.000000000000E+00  0.000000000000E+00  0.000000000000E+00  0.000000000000E+00  0.000000000000E+00
  0.000000000000E+00  0.000000000000E+00  0.000000000000E+00  0.000000000000E+00  0.000000000000E+00
  0.000000000000E+00  0.000000000000E+00  0.000000000000E+00  0.000000000000E+00  0.000000000000E+00
  0.000000000000E+00  0.000000000000E+00  0.000000000000E+00  0.000000000000E+00
 pseudo wavefunction
  0.576931580138E-08  0.615062372136E-08  0.655713319637E-08  0.699050985762E-08  0.745252942188E-08
  0.794508496732E-08  0.847019469014E-08  0.903001017403E-08  0.962682520595E-08  0.102630851748E-07
  0.109413970909E-07  0.116645402685E-07  0.124354777131E-07  0.132573682624E-07  0.141335795293E-07
  0.150677017002E-07  0.160635622457E-07  0.171252416030E-07  0.182570898952E-07  0.194637447553E-07
  0.207501503290E-07  0.221215775319E-07  0.235836456474E-07  0.251423453507E-07  0.268040632552E-07
  0.285756080806E-07  0.304642385515E-07  0.324776931387E-07  0.346242217674E-07  0.369126196198E-07
  0.393522631729E-07  0.419531486176E-07  0.447259328167E-07  0.476819769709E-07  0.508333931697E-07
  0.541930940196E-07  0.577748455519E-07  0.615933236283E-07  0.656641740730E-07  0.700040767802E-07
  0.746308140581E-07  0.795633434903E-07  0.848218756123E-07  0.904279567222E-07  0.964045571643E-07
  0.102776165448E-06  0.109568888586E-06  0.116810559068E-06  0.124530848896E-06  0.132761391167E-06
  0.141535909686E-06  0.150890357143E-06  0.160863062427E-06  0.171494887675E-06  0.182829395699E-06
  0.194913028482E-06  0.207795297468E-06  0.221528986428E-06  0.236170367739E-06  0.251779432954E-06
  0.268420138608E-06  0.286160668274E-06  0.305073711942E-06  0.325236763853E-06  0.346732440024E-06
  0.369648816762E-06  0.394079791542E-06  0.420125467748E-06  0.447892564826E-06  0.477494855566E-06
  0.509053632265E-06  0.542698203713E-06  0.578566425018E-06  0.616805262456E-06  0.657571395644E-06
  0.701031859519E-06  0.747364728744E-06  0.796759847348E-06  0.849419606590E-06  0.905559774231E-06
  0.965410378618E-06  0.102921665120E-05  0.109724003132E-05  0.116975923747E-05  0.124707140923E-05
  0.132949332484E-05  0.141736269912E-05  0.151103956721E-05  0.161090775976E-05  0.171737647565E-05
  0.183088195862E-05  0.195188928470E-05  0.208089426778E-05  0.221842549121E-05  0.236504647350E-05
  0.252135797731E-05  0.268800047095E-05  0.286565675264E-05  0.305505474813E-05  0.325697049325E-05
  0.347223131363E-05  0.370171921447E-05  0.394637449443E-05  0.420719959833E-05  0.448526322448E-05
  0.478170470345E-05  0.509773866626E-05  0.543466002107E-05  0.579384925881E-05  0.617677810939E-05
  0.658501557185E-05  0.702023434288E-05  0.748421767034E-05  0.797886665964E-05  0.850620806301E-05
  0.906840258355E-05  0.966775372812E-05  0.103067172452E-04  0.109879111867E-04  0.117141266343E-04
  0.124883391351E-04  0.133137208931E-04  0.141936537656E-04  0.151317431194E-04  0.161318326022E-04
  0.171980198904E-04  0.183346734770E-04  0.195464505699E-04  0.208383161725E-04  0.222155634246E-04
  0.236838352886E-04  0.252491476679E-04  0.269179140537E-04  0.286969717995E-04  0.305936101329E-04
  0.326156000177E-04  0.347712259892E-04  0.370693200936E-04  0.395192980696E-04  0.421311979205E-04
  0.449157210354E-04  0.478842760272E-04  0.510490254666E-04  0.544229357047E-04  0.580198299861E-04
  0.618544450724E-04  0.659424916049E-04  0.703007184569E-04  0.749469813354E-04  0.799003159161E-04
  0.851810158080E-04  0.908107156695E-04  0.968124798130E-04  0.103210896663E-03  0.110032179451E-03
  0.117304273565E-03  0.125056970981E-03  0.133322032259E-03  0.142133316590E-03  0.151526920432E-03
  0.161541325296E-03  0.172217555295E-03  0.183599345089E-03  0.195733318918E-03  0.208669181448E-03
  0.222459921224E-03  0.237162027534E-03  0.252835721596E-03  0.269545202993E-03  0.287358912367E-03
  0.306349811440E-03  0.326595681506E-03  0.348179441611E-03  0.371189487701E-03  0.395720054148E-03
  0.421871599085E-03  0.449751215156E-03  0.479473067317E-03  0.511158859488E-03  0.544938331934E-03
  0.580949791403E-03  0.619340676164E-03  0.660268158235E-03  0.703899785233E-03  0.750414164443E-03
  0.800001691882E-03  0.852865329269E-03  0.909221432069E-03  0.969300631919E-03  0.103334877700E-02
  0.110162793410E-02  0.117441745648E-02  0.125201512167E-02  0.133473834388E-02  0.142292546585E-02
  0.151693713513E-02  0.161715777056E-02  0.172399712450E-02  0.183789194708E-02  0.195930775920E-02
  0.208874074102E-02  0.222671974354E-02  0.237380843116E-02  0.253060756350E-02  0.269775742543E-02
  0.287594041479E-02  0.306588379776E-02  0.326836264251E-02  0.348420294242E-02  0.371428494076E-02
  0.395954666956E-02  0.422098771596E-02  0.449967323027E-02  0.479673819068E-02  0.511339194056E-02
  0.545092301496E-02  0.581070427411E-02  0.619419836239E-02  0.660296351268E-02  0.703865971649E-02
  0.750305528191E-02  0.799803380202E-02  0.852560155807E-02  0.908789538231E-02  0.968719100711E-02
  0.103259119278E-01  0.110066388079E-01  0.117321194574E-01  0.125052794139E-01  0.133292331602E-01
  0.142072960117E-01  0.151429967068E-01  0.161400907372E-01  0.172025744536E-01  0.183346999841E-01
  0.195409910021E-01  0.208262593822E-01  0.221956227819E-01  0.236545231851E-01  0.252087464468E-01
  0.268644428706E-01  0.286281488575E-01  0.305068096525E-01  0.325078032203E-01  0.346389652735E-01
  0.369086154705E-01  0.393255847970E-01  0.418992441353E-01  0.446395340152E-01  0.475569955321E-01
  0.506628023992E-01  0.539687940902E-01  0.574875100049E-01  0.612322245713E-01  0.652169831678E-01
  0.694566387236E-01  0.739668888131E-01  0.787643130262E-01  0.838664103413E-01  0.892916361799E-01
  0.950594387520E-01  0.101190294234E+00  0.107705740236E+00  0.114628406916E+00  0.121982045000E+00
  0.129791549837E+00  0.138082980470E+00  0.146883572572E+00  0.156221743884E+00  0.166127090605E+00
  0.176630372972E+00  0.187763487977E+00  0.199559426904E+00  0.212052215056E+00  0.225276830661E+00
  0.239269099562E+00  0.254065561867E+00  0.269703306229E+00  0.286219766922E+00  0.303652478272E+00
  0.322038780407E+00  0.341415469581E+00  0.361818385633E+00  0.383281928364E+00  0.405838493823E+00
  0.429517820670E+00  0.454346235970E+00  0.480345788943E+00  0.507533260456E+00  0.535919035341E+00
  0.565505824107E+00  0.596287220237E+00  0.628246079258E+00  0.661352706048E+00  0.695562837714E+00
  0.730815410898E+00  0.767030104681E+00  0.804104653747E+00  0.841911931207E+00  0.880296806907E+00
  0.919072795460E+00  0.958018519038E+00  0.996874023571E+00  0.103533700394E+01  0.107305901443E+01
  0.110964176567E+01  0.114463363893E+01  0.117752658349E+01  0.120775360242E+01  0.123468707768E+01
  0.125763823496E+01  0.127585810239E+01  0.128854037337E+01  0.129482663891E+01  0.129381450670E+01
  0.128456916683E+01  0.126613899132E+01  0.123757575872E+01  0.119796006544E+01  0.114643241122E+01
  0.108229246047E+01  0.100521911513E+01  0.915104619950E+00  0.812020622627E+00  0.000000000000E+00
  0.000000000000E+00  0.000000000000E+00  0.000000000000E+00  0.000000000000E+00  0.000000000000E+00
  0.000000000000E+00  0.000000000000E+00  0.000000000000E+00  0.000000000000E+00  0.000000000000E+00
  0.000000000000E+00  0.000000000000E+00  0.000000000000E+00  0.000000000000E+00  0.000000000000E+00
  0.000000000000E+00  0.000000000000E+00  0.000000000000E+00  0.000000000000E+00  0.000000000000E+00
  0.000000000000E+00  0.000000000000E+00  0.000000000000E+00  0.000000000000E+00
 ae wavefunction
  0.253594542731E-05  0.268621967104E-05  0.284485401425E-05  0.301234692547E-05  0.318922528186E-05
  0.337604609748E-05  0.357339835431E-05  0.378190494242E-05  0.400222471585E-05  0.423505467221E-05
  0.448113226303E-05  0.474123784410E-05  0.501619727346E-05  0.530688466782E-05  0.561422532620E-05
  0.593919883203E-05  0.628284234500E-05  0.664625409433E-05  0.703059708636E-05  0.743710304023E-05
  0.786707656565E-05  0.832189959820E-05  0.880303610879E-05  0.931203710391E-05  0.985054593559E-05
  0.104203039404E-04  0.110231564283E-04  0.116610590436E-04  0.123360845211E-04  0.130504298629E-04
  0.138064239628E-04  0.146065357049E-04  0.154533825691E-04  0.163497397727E-04  0.172985499853E-04
  0.183029336494E-04  0.193661999493E-04  0.204918584658E-04  0.216836315627E-04  0.229454675504E-04
  0.242815546754E-04  0.256963359895E-04  0.271945251536E-04  0.287811232346E-04  0.304614365599E-04
  0.322410956960E-04  0.341260756206E-04  0.361227171671E-04  0.382377498180E-04  0.404783159362E-04
  0.428519965220E-04  0.453668385934E-04  0.480313842920E-04  0.508547018227E-04  0.538464183430E-04
  0.570167549232E-04  0.603765637093E-04  0.639373674244E-04  0.677114013571E-04  0.717116579904E-04
  0.759519344371E-04  0.804468828558E-04  0.852120640330E-04  0.902640043286E-04  0.956202561919E-04
  0.101299462470E-03  0.107321424743E-03  0.113707175932E-03  0.120479057446E-03  0.127660801144E-03
  0.135277616407E-03  0.143356282631E-03  0.151925247479E-03  0.161014731225E-03  0.170656837584E-03
  0.180885671391E-03  0.191737463568E-03  0.203250703804E-03  0.215466281404E-03  0.228427634816E-03
  0.242180910325E-03  0.256775130482E-03  0.272262372827E-03  0.288697959518E-03  0.306140658511E-03
  0.324652896949E-03  0.344300987485E-03  0.365155368285E-03  0.387290857490E-03  0.410786922974E-03
  0.435727968261E-03  0.462203635536E-03  0.490309126683E-03  0.520145543389E-03  0.551820247356E-03
  0.585447241748E-03  0.621147575021E-03  0.659049768372E-03  0.699290268080E-03  0.742013924072E-03
  0.787374496107E-03  0.835535189043E-03  0.886669218699E-03  0.940960409892E-03  0.998603828299E-03
  0.105980644785E-02  0.112478785544E-02  0.119378099477E-02  0.126703295125E-02  0.134480577993E-02
  0.142737737847E-02  0.151504240727E-02  0.160811325883E-02  0.170692107871E-02  0.181181684011E-02
  0.192317247461E-02  0.204138206121E-02  0.216686307619E-02  0.230005770608E-02  0.244143422624E-02
  0.259148844739E-02  0.275074523252E-02  0.291976008668E-02  0.309912082174E-02  0.328944929869E-02
  0.349140324948E-02  0.370567818061E-02  0.393300936037E-02  0.417417389165E-02  0.442999287181E-02
  0.470133364101E-02  0.498911212028E-02  0.529429523986E-02  0.561790345845E-02  0.596101337323E-02
  0.632476042029E-02  0.671034166432E-02  0.711901867596E-02  0.755212049441E-02  0.801104667219E-02
  0.849727039792E-02  0.901234169223E-02  0.955789067047E-02  0.101356308651E-01  0.107473625986E-01
  0.113949763978E-01  0.120804564359E-01  0.128058839909E-01  0.135734409027E-01  0.143854130126E-01
  0.152441935645E-01  0.161522865451E-01  0.171123099382E-01  0.181269988640E-01  0.191992085727E-01
  0.203319172563E-01  0.215282286409E-01  0.227913743155E-01  0.241247157516E-01  0.255317459605E-01
  0.270160907327E-01  0.285815093980E-01  0.302318950387E-01  0.319712740827E-01  0.338038051995E-01
  0.357337774118E-01  0.377656073332E-01  0.399038354324E-01  0.421531212194E-01  0.445182372405E-01
  0.470040617632E-01  0.496155700243E-01  0.523578239050E-01  0.552359598937E-01  0.582551751855E-01
  0.614207117639E-01  0.647378383017E-01  0.682118297121E-01  0.718479441769E-01  0.756513974713E-01
  0.796273344042E-01  0.837807971883E-01  0.881166905518E-01  0.926397434083E-01  0.973544668991E-01
  0.102265108629E+00  0.107375602922E+00  0.112689516940E+00  0.118209992501E+00  0.123939683485E+00
  0.129880688690E+00  0.136034480072E+00  0.142401826293E+00  0.148982711564E+00  0.155776249791E+00
  0.162780594096E+00  0.169992841814E+00  0.177408935152E+00  0.185023557757E+00  0.192830027499E+00
  0.200820185898E+00  0.208984284674E+00  0.217310870063E+00  0.225786665595E+00  0.234396454212E+00
  0.243122960692E+00  0.251946735492E+00  0.260846041226E+00  0.269796743075E+00  0.278772204458E+00
  0.287743189273E+00  0.296677771907E+00  0.305541256087E+00  0.314296103512E+00  0.322901873191E+00
  0.331315172648E+00  0.339489622730E+00  0.347375838665E+00  0.354921431208E+00  0.362071032882E+00
  0.368766355179E+00  0.374946282952E+00  0.380547011869E+00  0.385502233740E+00  0.389743372857E+00
  0.393199874610E+00  0.395799546014E+00  0.397468947063E+00  0.398133831957E+00  0.397719639910E+00
  0.396152035849E+00  0.393357501386E+00  0.389263976033E+00  0.383801547856E+00  0.376903191933E+00
  0.368505554144E+00  0.358549777044E+00  0.346982363780E+00  0.333756075173E+00  0.318830854137E+00
  0.302174770528E+00  0.283764978370E+00  0.263588676079E+00  0.241644058981E+00  0.217941252008E+00
  0.192503209045E+00  0.165366564065E+00  0.136582418025E+00  0.106217044492E+00  0.743524964265E-01
  0.410870962833E-01  0.653579183146E-02 -0.291696394672E-01 -0.658805542341E-01 -0.103431591852E+00
 -0.141641025666E+00 -0.180311335803E+00 -0.219230023022E+00 -0.258170677371E+00 -0.296894295862E+00
 -0.335150801300E+00 -0.372680651602E+00 -0.409216373217E+00 -0.444483865109E+00 -0.478203466824E+00
 -0.510091065417E+00 -0.539859780991E+00 -0.567222721742E+00 -0.591896776890E+00 -0.613606803197E+00
 -0.632089479727E+00 -0.647096551091E+00 -0.658397593491E+00 -0.665782528527E+00 -0.669064005030E+00
 -0.668079649145E+00 -0.662694114148E+00 -0.652800842716E+00 -0.638323469137E+00 -0.619216819355E+00
 -0.595467499440E+00 -0.567094089813E+00 -0.534146980937E+00 -0.496707897492E+00 -0.454889164067E+00
 -0.408832767960E+00 -0.358709274793E+00 -0.304716651024E+00 -0.247079044211E+00 -0.186045567478E+00
 -0.121889129335E+00 -0.549053439593E-01  0.145884490803E-01  0.862540329629E-01  0.159733012826E+00
  0.234647354894E+00  0.310599759818E+00  0.387173869878E+00  0.463934315807E+00  0.540426614865E+00
  0.616176942007E+00  0.690691802782E+00  0.763457650611E+00  0.833940502584E+00  0.901585621951E+00
  0.965817349451E+00  0.102603917933E+01  0.108163418953E+01  0.113196594942E+01  0.117638004407E+01
  0.121420637201E+01  0.124476239492E+01  0.126735754183E+01  0.128129899423E+01  0.128589909827E+01
  0.128048466205E+01  0.126440839231E+01  0.123706270782E+01  0.119789613127E+01  0.114643241122E+01
  0.108229246047E+01  0.100521911513E+01  0.915104619950E+00  0.812020622627E+00  0.000000000000E+00
  0.000000000000E+00  0.000000000000E+00  0.000000000000E+00  0.000000000000E+00  0.000000000000E+00
  0.000000000000E+00  0.000000000000E+00  0.000000000000E+00  0.000000000000E+00  0.000000000000E+00
  0.000000000000E+00  0.000000000000E+00  0.000000000000E+00  0.000000000000E+00  0.000000000000E+00
  0.000000000000E+00  0.000000000000E+00  0.000000000000E+00  0.000000000000E+00  0.000000000000E+00
  0.000000000000E+00  0.000000000000E+00  0.000000000000E+00  0.000000000000E+00
 End of Dataset
  PAW_PBE Fe 06Sep2000                   
   8.00000000000000     
 parameters from PSCTR are:
   VRHFIN =Fe:  d7 s1
   LEXCH  = PE
   EATOM  =   594.3153 eV,   43.6809 Ry

   TITEL  = PAW_PBE Fe 06Sep2000
   LULTRA =        F    use ultrasoft PP ?
   IUNSCR =        1    unscreen: 0-lin 1-nonlin 2-no
   RPACOR =    2.000    partial core radius
   POMASS =   55.847; ZVAL   =    8.000    mass and valenz
   RCORE  =    2.300    outmost cutoff radius
   RWIGS  =    2.460; RWIGS  =    1.302    wigner-seitz radius (au A)
   ENMAX  =  267.882; ENMIN  =  200.911 eV
   RCLOC  =    1.701    cutoff for local pot
   LCOR   =        T    correct aug charges
   LPAW   =        T    paw PP
   EAUG   =  511.368
   DEXC   =    0.000
   RMAX   =    2.356    core radius for proj-oper
   RAUG   =    1.300    factor for augmentation sphere
   RDEP   =    2.442    radius for radial grids
   RDEPT  =    1.890    core radius for aug-charge
 
   Atomic configuration
    9 entries
     n  l   j            E        occ.
     1  0  0.50     -6993.8440   2.0000
     2  0  0.50      -814.6047   2.0000
     2  1  1.50      -693.3689   6.0000
     3  0  0.50       -89.4732   2.0000
     3  1  1.50       -55.6373   6.0000
     3  2  2.50        -3.8151   7.0000
     4  0  0.50        -4.2551   1.0000
     4  1  1.50        -3.4015   0.0000
     4  3  2.50        -1.3606   0.0000
   Description
     l       E           TYP  RCUT    TYP  RCUT
     2     -3.8151135     23  2.300
     2     -5.1756961     23  2.300
     0     -4.2550963     23  2.300
     0      7.2035603     23  2.300
     1     -2.7211652     23  2.300
     1     18.4316424     23  2.300
   Error from kinetic energy argument (eV)
   NDATA  =      100
   STEP   =   20.000   1.050
  97.8      96.4      95.7      94.1      93.3      91.7      89.9      89.0
  87.1      85.1      84.0      81.9      79.7      77.5      75.1      72.8
  70.4      67.9      65.4      61.7      59.2      56.7      52.9      50.4
  47.9      44.3      40.8      38.5      35.1      31.9      28.8      25.9
  23.2      20.6      18.2      16.0      13.3      11.5      9.41      8.01
  6.39      5.02      3.88      2.95      2.20      1.60      1.15     0.727
 0.490     0.288     0.162     0.101     0.573E-01 0.367E-01 0.282E-01 0.269E-01
 0.268E-01 0.258E-01 0.231E-01 0.190E-01 0.145E-01 0.102E-01 0.692E-02 0.438E-02
 0.323E-02 0.271E-02 0.263E-02 0.260E-02 0.239E-02 0.203E-02 0.152E-02 0.106E-02
 0.729E-03 0.564E-03 0.513E-03 0.508E-03 0.481E-03 0.409E-03 0.300E-03 0.215E-03
 0.160E-03 0.144E-03 0.142E-03 0.131E-03 0.105E-03 0.764E-04 0.572E-04 0.504E-04
 0.494E-04 0.447E-04 0.342E-04 0.254E-04 0.210E-04 0.204E-04 0.186E-04 0.144E-04
 0.107E-04 0.960E-05 0.924E-05 0.776E-05
END of PSCTR-controll parameters
 local part
   81.2582175088937     
  0.86392220E+02  0.86378756E+02  0.86338339E+02  0.86271025E+02  0.86176885E+02
  0.86056014E+02  0.85908536E+02  0.85734600E+02  0.85534379E+02  0.85308068E+02
  0.85055885E+02  0.84778069E+02  0.84474880E+02  0.84146597E+02  0.83793520E+02
  0.83415969E+02  0.83014281E+02  0.82588818E+02  0.82139958E+02  0.81668101E+02
  0.81173669E+02  0.80657104E+02  0.80118870E+02  0.79559449E+02  0.78979346E+02
  0.78379084E+02  0.77759208E+02  0.77120277E+02  0.76462869E+02  0.75787578E+02
  0.75095014E+02  0.74385799E+02  0.73660568E+02  0.72919968E+02  0.72164659E+02
  0.71395308E+02  0.70612593E+02  0.69817201E+02  0.69009825E+02  0.68191166E+02
  0.67361932E+02  0.66522835E+02  0.65674594E+02  0.64817928E+02  0.63953560E+02
  0.63082217E+02  0.62204622E+02  0.61321500E+02  0.60433573E+02  0.59541560E+02
  0.58646175E+02  0.57748127E+02  0.56848120E+02  0.55946848E+02  0.55044999E+02
  0.54143251E+02  0.53242271E+02  0.52342718E+02  0.51445236E+02  0.50550459E+02
  0.49659008E+02  0.48771490E+02  0.47888496E+02  0.47010604E+02  0.46138375E+02
  0.45272353E+02  0.44413065E+02  0.43561021E+02  0.42716710E+02  0.41880606E+02
  0.41053160E+02  0.40234805E+02  0.39425953E+02  0.38626997E+02  0.37838308E+02
  0.37060237E+02  0.36293115E+02  0.35537249E+02  0.34792929E+02  0.34060421E+02
  0.33339970E+02  0.32631802E+02  0.31936118E+02  0.31253102E+02  0.30582915E+02
  0.29925696E+02  0.29281565E+02  0.28650621E+02  0.28032942E+02  0.27428588E+02
  0.26837597E+02  0.26259990E+02  0.25695768E+02  0.25144912E+02  0.24607390E+02
  0.24083148E+02  0.23572118E+02  0.23074213E+02  0.22589333E+02  0.22117361E+02
  0.21658167E+02  0.21211604E+02  0.20777514E+02  0.20355725E+02  0.19946054E+02
  0.19548304E+02  0.19162269E+02  0.18787732E+02  0.18424468E+02  0.18072240E+02
  0.17730806E+02  0.17399916E+02  0.17079313E+02  0.16768733E+02  0.16467909E+02
  0.16176568E+02  0.15894434E+02  0.15621228E+02  0.15356667E+02  0.15100469E+02
  0.14852349E+02  0.14612021E+02  0.14379202E+02  0.14153606E+02  0.13934952E+02
  0.13722959E+02  0.13517350E+02  0.13317851E+02  0.13124190E+02  0.12936102E+02
  0.12753327E+02  0.12575607E+02  0.12402694E+02  0.12234343E+02  0.12070317E+02
  0.11910387E+02  0.11754329E+02  0.11601929E+02  0.11452978E+02  0.11307278E+02
  0.11164637E+02  0.11024873E+02  0.10887811E+02  0.10753288E+02  0.10621147E+02
  0.10491240E+02  0.10363429E+02  0.10237585E+02  0.10113588E+02  0.99913269E+01
  0.98706986E+01  0.97516095E+01  0.96339743E+01  0.95177160E+01  0.94027657E+01
  0.92890626E+01  0.91765533E+01  0.90651920E+01  0.89549398E+01  0.88457647E+01
  0.87376414E+01  0.86305506E+01  0.85244788E+01  0.84194181E+01  0.83153657E+01
  0.82123235E+01  0.81102979E+01  0.80092991E+01  0.79093410E+01  0.78104406E+01
  0.77126176E+01  0.76158941E+01  0.75202942E+01  0.74258436E+01  0.73325690E+01
  0.72404980E+01  0.71496590E+01  0.70600800E+01  0.69717892E+01  0.68848142E+01
  0.67991817E+01  0.67149175E+01  0.66320459E+01  0.65505896E+01  0.64705696E+01
  0.63920046E+01  0.63149112E+01  0.62393035E+01  0.61651931E+01  0.60925885E+01
  0.60214958E+01  0.59519179E+01  0.58838547E+01  0.58173030E+01  0.57522567E+01
  0.56887065E+01  0.56266402E+01  0.55660423E+01  0.55068947E+01  0.54491762E+01
  0.53928630E+01  0.53379285E+01  0.52843437E+01  0.52320769E+01  0.51810944E+01
  0.51313603E+01  0.50828367E+01  0.50354838E+01  0.49892604E+01  0.49441240E+01
  0.49000306E+01  0.48569354E+01  0.48147929E+01  0.47735570E+01  0.47331812E+01
  0.46936189E+01  0.46548238E+01  0.46167497E+01  0.45793509E+01  0.45425826E+01
  0.45064005E+01  0.44707617E+01  0.44356244E+01  0.44009481E+01  0.43666938E+01
  0.43328242E+01  0.42993039E+01  0.42660992E+01  0.42331786E+01  0.42005124E+01
  0.41680734E+01  0.41358365E+01  0.41037789E+01  0.40718801E+01  0.40401220E+01
  0.40084889E+01  0.39769674E+01  0.39455464E+01  0.39142171E+01  0.38829729E+01
  0.38518095E+01  0.38207246E+01  0.37897179E+01  0.37587911E+01  0.37279476E+01
  0.36971928E+01  0.36665335E+01  0.36359781E+01  0.36055362E+01  0.35752189E+01
  0.35450384E+01  0.35150076E+01  0.34851407E+01  0.34554521E+01  0.34259570E+01
  0.33966711E+01  0.33676100E+01  0.33387899E+01  0.33102265E+01  0.32819356E+01
  0.32539326E+01  0.32262325E+01  0.31988498E+01  0.31717985E+01  0.31450915E+01
  0.31187412E+01  0.30927590E+01  0.30671553E+01  0.30419394E+01  0.30171196E+01
  0.29927029E+01  0.29686951E+01  0.29451008E+01  0.29219233E+01  0.28991646E+01
  0.28768254E+01  0.28549051E+01  0.28334017E+01  0.28123120E+01  0.27916318E+01
  0.27713552E+01  0.27514756E+01  0.27319851E+01  0.27128748E+01  0.26941349E+01
  0.26757545E+01  0.26577221E+01  0.26400254E+01  0.26226513E+01  0.26055864E+01
  0.25888166E+01  0.25723273E+01  0.25561037E+01  0.25401310E+01  0.25243937E+01
  0.25088768E+01  0.24935650E+01  0.24784433E+01  0.24634968E+01  0.24487110E+01
  0.24340716E+01  0.24195650E+01  0.24051780E+01  0.23908980E+01  0.23767129E+01
  0.23626117E+01  0.23485836E+01  0.23346190E+01  0.23207090E+01  0.23068455E+01
  0.22930214E+01  0.22792301E+01  0.22654665E+01  0.22517258E+01  0.22380046E+01
  0.22243000E+01  0.22106103E+01  0.21969345E+01  0.21832725E+01  0.21696250E+01
  0.21559935E+01  0.21423803E+01  0.21287883E+01  0.21152212E+01  0.21016831E+01
  0.20881789E+01  0.20747138E+01  0.20612935E+01  0.20479241E+01  0.20346119E+01
  0.20213637E+01  0.20081862E+01  0.19950864E+01  0.19820713E+01  0.19691481E+01
  0.19563237E+01  0.19436051E+01  0.19309990E+01  0.19185121E+01  0.19061506E+01
  0.18939205E+01  0.18818276E+01  0.18698770E+01  0.18580737E+01  0.18464220E+01
  0.18349257E+01  0.18235882E+01  0.18124124E+01  0.18014004E+01  0.17905539E+01
  0.17798740E+01  0.17693613E+01  0.17590157E+01  0.17488365E+01  0.17388227E+01
  0.17289724E+01  0.17192834E+01  0.17097529E+01  0.17003777E+01  0.16911539E+01
  0.16820775E+01  0.16731437E+01  0.16643477E+01  0.16556840E+01  0.16471471E+01
  0.16387309E+01  0.16304295E+01  0.16222364E+01  0.16141452E+01  0.16061494E+01
  0.15982422E+01  0.15904172E+01  0.15826677E+01  0.15749872E+01  0.15673693E+01
  0.15598077E+01  0.15522963E+01  0.15448293E+01  0.15374009E+01  0.15300059E+01
  0.15226391E+01  0.15152957E+01  0.15079714E+01  0.15006621E+01  0.14933642E+01
  0.14860743E+01  0.14787897E+01  0.14715080E+01  0.14642271E+01  0.14569454E+01
  0.14496620E+01  0.14423760E+01  0.14350873E+01  0.14277959E+01  0.14205024E+01
  0.14132076E+01  0.14059129E+01  0.13986199E+01  0.13913305E+01  0.13840469E+01
  0.13767717E+01  0.13695077E+01  0.13622579E+01  0.13550255E+01  0.13478140E+01
  0.13406268E+01  0.13334677E+01  0.13263404E+01  0.13192488E+01  0.13121967E+01
  0.13051879E+01  0.12982264E+01  0.12913158E+01  0.12844599E+01  0.12776622E+01
  0.12709261E+01  0.12642549E+01  0.12576516E+01  0.12511191E+01  0.12446600E+01
  0.12382768E+01  0.12319715E+01  0.12257462E+01  0.12196024E+01  0.12135414E+01
  0.12075642E+01  0.12016717E+01  0.11958642E+01  0.11901420E+01  0.11845047E+01
  0.11789519E+01  0.11734829E+01  0.11680966E+01  0.11627916E+01  0.11575663E+01
  0.11524188E+01  0.11473470E+01  0.11423485E+01  0.11374208E+01  0.11325611E+01
  0.11277665E+01  0.11230339E+01  0.11183600E+01  0.11137417E+01  0.11091753E+01
  0.11046575E+01  0.11001846E+01  0.10957531E+01  0.10913594E+01  0.10869998E+01
  0.10826708E+01  0.10783689E+01  0.10740907E+01  0.10698327E+01  0.10655917E+01
  0.10613647E+01  0.10571486E+01  0.10529407E+01  0.10487383E+01  0.10445391E+01
  0.10403408E+01  0.10361413E+01  0.10319389E+01  0.10277320E+01  0.10235192E+01
  0.10192995E+01  0.10150719E+01  0.10108358E+01  0.10065907E+01  0.10023366E+01
  0.99807341E+00  0.99380146E+00  0.98952127E+00  0.98523356E+00  0.98093929E+00
  0.97663960E+00  0.97233583E+00  0.96802950E+00  0.96372228E+00  0.95941600E+00
  0.95511263E+00  0.95081425E+00  0.94652303E+00  0.94224124E+00  0.93797123E+00
  0.93371538E+00  0.92947612E+00  0.92525590E+00  0.92105717E+00  0.91688240E+00
  0.91273400E+00  0.90861435E+00  0.90452579E+00  0.90047057E+00  0.89645086E+00
  0.89246874E+00  0.88852614E+00  0.88462490E+00  0.88076670E+00  0.87695308E+00
  0.87318539E+00  0.86946485E+00  0.86579248E+00  0.86216911E+00  0.85859541E+00
  0.85507186E+00  0.85159873E+00  0.84817612E+00  0.84480393E+00  0.84148189E+00
  0.83820951E+00  0.83498617E+00  0.83181102E+00  0.82868306E+00  0.82560111E+00
  0.82256385E+00  0.81956978E+00  0.81661726E+00  0.81370453E+00  0.81082970E+00
  0.80799075E+00  0.80518560E+00  0.80241204E+00  0.79966785E+00  0.79695069E+00
  0.79425823E+00  0.79158809E+00  0.78893788E+00  0.78630522E+00  0.78368774E+00
  0.78108308E+00  0.77848895E+00  0.77590309E+00  0.77332332E+00  0.77074753E+00
  0.76817369E+00  0.76559988E+00  0.76302430E+00  0.76044525E+00  0.75786119E+00
  0.75527071E+00  0.75267253E+00  0.75006557E+00  0.74744887E+00  0.74482165E+00
  0.74218332E+00  0.73953343E+00  0.73687172E+00  0.73419809E+00  0.73151261E+00
  0.72881552E+00  0.72610722E+00  0.72338827E+00  0.72065938E+00  0.71792140E+00
  0.71517533E+00  0.71242231E+00  0.70966361E+00  0.70690060E+00  0.70413478E+00
  0.70136774E+00  0.69860114E+00  0.69583676E+00  0.69307640E+00  0.69032192E+00
  0.68757524E+00  0.68483828E+00  0.68211297E+00  0.67940123E+00  0.67670498E+00
  0.67402611E+00  0.67136644E+00  0.66872777E+00  0.66611182E+00  0.66352024E+00
  0.66095458E+00  0.65841632E+00  0.65590683E+00  0.65342735E+00  0.65097901E+00
  0.64856283E+00  0.64617966E+00  0.64383024E+00  0.64151513E+00  0.63923477E+00
  0.63698942E+00  0.63477921E+00  0.63260408E+00  0.63046384E+00  0.62835815E+00
  0.62628648E+00  0.62424821E+00  0.62224254E+00  0.62026854E+00  0.61832515E+00
  0.61641121E+00  0.61452543E+00  0.61266639E+00  0.61083262E+00  0.60902252E+00
  0.60723443E+00  0.60546661E+00  0.60371727E+00  0.60198457E+00  0.60026663E+00
  0.59856155E+00  0.59686742E+00  0.59518233E+00  0.59350437E+00  0.59183170E+00
  0.59016247E+00  0.58849491E+00  0.58682731E+00  0.58515803E+00  0.58348550E+00
  0.58180826E+00  0.58012494E+00  0.57843428E+00  0.57673512E+00  0.57502644E+00
  0.57330734E+00  0.57157703E+00  0.56983489E+00  0.56808040E+00  0.56631321E+00
  0.56453309E+00  0.56273999E+00  0.56093397E+00  0.55911524E+00  0.55728416E+00
  0.55544122E+00  0.55358704E+00  0.55172239E+00  0.54984812E+00  0.54796523E+00
  0.54607480E+00  0.54417802E+00  0.54227616E+00  0.54037057E+00  0.53846267E+00
  0.53655394E+00  0.53464590E+00  0.53274012E+00  0.53083819E+00  0.52894173E+00
  0.52705235E+00  0.52517168E+00  0.52330131E+00  0.52144283E+00  0.51959776E+00
  0.51776761E+00  0.51595380E+00  0.51415770E+00  0.51238059E+00  0.51062368E+00
  0.50888806E+00  0.50717474E+00  0.50548461E+00  0.50381846E+00  0.50217695E+00
  0.50056062E+00  0.49896990E+00  0.49740509E+00  0.49586634E+00  0.49435372E+00
  0.49286713E+00  0.49140637E+00  0.48997109E+00  0.48856085E+00  0.48717505E+00
  0.48581302E+00  0.48447393E+00  0.48315688E+00  0.48186086E+00  0.48058476E+00
  0.47932740E+00  0.47808752E+00  0.47686379E+00  0.47565482E+00  0.47445920E+00
  0.47327545E+00  0.47210209E+00  0.47093760E+00  0.46978047E+00  0.46862919E+00
  0.46748226E+00  0.46633820E+00  0.46519555E+00  0.46405291E+00  0.46290891E+00
  0.46176223E+00  0.46061164E+00  0.45945596E+00  0.45829409E+00  0.45712505E+00
  0.45594791E+00  0.45476187E+00  0.45356621E+00  0.45236034E+00  0.45114378E+00
  0.44991614E+00  0.44867716E+00  0.44742670E+00  0.44616472E+00  0.44489129E+00
  0.44360662E+00  0.44231098E+00  0.44100478E+00  0.43968852E+00  0.43836280E+00
  0.43702831E+00  0.43568583E+00  0.43433622E+00  0.43298042E+00  0.43161943E+00
  0.43025433E+00  0.42888623E+00  0.42751631E+00  0.42614577E+00  0.42477586E+00
  0.42340781E+00  0.42204289E+00  0.42068237E+00  0.41932750E+00  0.41797952E+00
  0.41663963E+00  0.41530903E+00  0.41398885E+00  0.41268018E+00  0.41138406E+00
  0.41010148E+00  0.40883334E+00  0.40758050E+00  0.40634373E+00  0.40512369E+00
  0.40392101E+00  0.40273618E+00  0.40156963E+00  0.40042168E+00  0.39929256E+00
  0.39818238E+00  0.39709117E+00  0.39601888E+00  0.39496532E+00  0.39393023E+00
  0.39291327E+00  0.39191399E+00  0.39093187E+00  0.38996630E+00  0.38901660E+00
  0.38808202E+00  0.38716176E+00  0.38625492E+00  0.38536059E+00  0.38447780E+00
  0.38360552E+00  0.38274271E+00  0.38188828E+00  0.38104113E+00  0.38020016E+00
  0.37936424E+00  0.37853225E+00  0.37770309E+00  0.37687567E+00  0.37604893E+00
  0.37522182E+00  0.37439335E+00  0.37356258E+00  0.37272860E+00  0.37189056E+00
  0.37104767E+00  0.37019921E+00  0.36934453E+00  0.36848304E+00  0.36761421E+00
  0.36673762E+00  0.36585289E+00  0.36495976E+00  0.36405801E+00  0.36314753E+00
  0.36222828E+00  0.36130031E+00  0.36036373E+00  0.35941875E+00  0.35846566E+00
  0.35750480E+00  0.35653662E+00  0.35556160E+00  0.35458029E+00  0.35359332E+00
  0.35260135E+00  0.35160509E+00  0.35060530E+00  0.34960278E+00  0.34859835E+00
  0.34759287E+00  0.34658719E+00  0.34558222E+00  0.34457885E+00  0.34357797E+00
  0.34258048E+00  0.34158728E+00  0.34059923E+00  0.33961720E+00  0.33864202E+00
  0.33767447E+00  0.33671534E+00  0.33576533E+00  0.33482512E+00  0.33389534E+00
  0.33297654E+00  0.33206925E+00  0.33117392E+00  0.33029092E+00  0.32942060E+00
  0.32856320E+00  0.32771893E+00  0.32688791E+00  0.32607021E+00  0.32526582E+00
  0.32447467E+00  0.32369662E+00  0.32293148E+00  0.32217897E+00  0.32143879E+00
  0.32071053E+00  0.31999377E+00  0.31928800E+00  0.31859269E+00  0.31790725E+00
  0.31723104E+00  0.31656341E+00  0.31590365E+00  0.31525104E+00  0.31460485E+00
  0.31396430E+00  0.31332863E+00  0.31269706E+00  0.31206882E+00  0.31144311E+00
  0.31081919E+00  0.31019628E+00  0.30957364E+00  0.30895056E+00  0.30832633E+00
  0.30770029E+00  0.30707180E+00  0.30644026E+00  0.30580512E+00  0.30516586E+00
  0.30452201E+00  0.30387317E+00  0.30321897E+00  0.30255910E+00  0.30189332E+00
  0.30122142E+00  0.30054326E+00  0.29985877E+00  0.29916793E+00  0.29847075E+00
  0.29776733E+00  0.29705781E+00  0.29634237E+00  0.29562127E+00  0.29489479E+00
  0.29416327E+00  0.29342710E+00  0.29268669E+00  0.29194253E+00  0.29119511E+00
  0.29044497E+00  0.28969266E+00  0.28893879E+00  0.28818397E+00  0.28742881E+00
  0.28667395E+00  0.28592005E+00  0.28516775E+00  0.28441769E+00  0.28367052E+00
  0.28292685E+00  0.28218732E+00  0.28145251E+00  0.28072301E+00  0.27999938E+00
  0.27928213E+00  0.27857177E+00  0.27786875E+00  0.27717352E+00  0.27648646E+00
  0.27580792E+00  0.27513821E+00  0.27447757E+00  0.27382624E+00  0.27318436E+00
  0.27255205E+00  0.27192938E+00  0.27131636E+00  0.27071295E+00  0.27011907E+00
  0.26953458E+00  0.26895931E+00  0.26839303E+00  0.26783548E+00  0.26728634E+00
  0.26674527E+00  0.26621190E+00  0.26568580E+00  0.26516653E+00  0.26465362E+00
  0.26414655E+00  0.26364480E+00  0.26314783E+00  0.26265509E+00  0.26216598E+00
  0.26167995E+00  0.26119638E+00  0.26071472E+00  0.26023436E+00  0.25975474E+00
  0.25927530E+00  0.25879548E+00  0.25831476E+00  0.25783264E+00  0.25734863E+00
  0.25686228E+00  0.25637316E+00  0.25588088E+00  0.25538508E+00  0.25488543E+00
  0.25438166E+00  0.25387351E+00  0.25336078E+00  0.25284331E+00  0.25232097E+00
  0.25179368E+00  0.25126143E+00  0.25072421E+00  0.25018209E+00  0.24963517E+00
  0.24908359E+00  0.24852754E+00  0.24796724E+00  0.24740295E+00  0.24683498E+00
  0.24626364E+00  0.24568931E+00  0.24511236E+00  0.24453322E+00  0.24395230E+00
  0.24337007E+00  0.24278700E+00  0.24220357E+00  0.24162027E+00  0.24103761E+00
  0.24045608E+00  0.23987621E+00  0.23929849E+00  0.23872342E+00  0.23815148E+00
  0.23758316E+00  0.23701891E+00  0.23645918E+00  0.23590436E+00  0.23535486E+00
  0.23481103E+00  0.23427321E+00  0.23374170E+00  0.23321675E+00  0.23269861E+00
  0.23218745E+00  0.23168345E+00  0.23118672E+00  0.23069735E+00  0.23021536E+00
  0.22974078E+00  0.22927355E+00  0.22881361E+00  0.22836085E+00  0.22791511E+00
  0.22747620E+00  0.22704390E+00  0.22661795E+00  0.22619805E+00  0.22578390E+00
  0.22537514E+00  0.22497139E+00  0.22457227E+00  0.22417736E+00  0.22378624E+00
  0.22339846E+00  0.22301357E+00  0.22263112E+00  0.22225064E+00  0.22187167E+00
  0.22149375E+00  0.22111643E+00  0.22073925E+00  0.22036177E+00  0.21998356E+00
 gradient corrections used for XC
           5
 core charge-density (partial)
  0.19637552E+01  0.19628962E+01  0.19603214E+01  0.19560374E+01  0.19500549E+01
  0.19423892E+01  0.19330597E+01  0.19220898E+01  0.19095071E+01  0.18953430E+01
  0.18796328E+01  0.18624153E+01  0.18437329E+01  0.18236312E+01  0.18021589E+01
  0.17793677E+01  0.17553120E+01  0.17300485E+01  0.17036364E+01  0.16761367E+01
  0.16476124E+01  0.16181280E+01  0.15877491E+01  0.15565426E+01  0.15245763E+01
  0.14919183E+01  0.14586373E+01  0.14248021E+01  0.13904812E+01  0.13557431E+01
  0.13206554E+01  0.12852853E+01  0.12496988E+01  0.12139609E+01  0.11781353E+01
  0.11422841E+01  0.11064680E+01  0.10707458E+01  0.10351742E+01  0.99980827E+00
  0.96470057E+00  0.92990162E+00  0.89545955E+00  0.86142011E+00  0.82782658E+00
  0.79471974E+00  0.76213781E+00  0.73011641E+00  0.69868861E+00  0.66788484E+00
  0.63773295E+00  0.60825818E+00  0.57948323E+00  0.55142825E+00  0.52411091E+00
  0.49754640E+00  0.47174755E+00  0.44672483E+00  0.42248643E+00  0.39903836E+00
  0.37638450E+00  0.35452668E+00  0.33346475E+00  0.31319672E+00  0.29371878E+00
  0.27502546E+00  0.25710965E+00  0.23996277E+00  0.22357480E+00  0.20793442E+00
  0.19302909E+00  0.17884515E+00  0.16536790E+00  0.15258171E+00  0.14047011E+00
  0.12901587E+00  0.11820111E+00  0.10800734E+00  0.98415619E-01  0.89406563E-01
  0.80960466E-01  0.73057362E-01  0.65677099E-01  0.58799409E-01  0.52403975E-01
  0.46470491E-01  0.40978725E-01  0.35908573E-01  0.31240110E-01  0.26953642E-01
  0.23029753E-01  0.19449339E-01  0.16193656E-01  0.13244352E-01  0.10583495E-01
  0.81936096E-02  0.60576948E-02  0.41592518E-02  0.24823015E-02  0.10114012E-02
 -0.26834147E-03 -0.13712573E-02 -0.23111072E-02 -0.31010759E-02 -0.37537686E-02
 -0.42812089E-02 -0.46948402E-02 -0.50055273E-02 -0.52235620E-02 -0.53586681E-02
 -0.54200101E-02 -0.54162021E-02 -0.53553182E-02 -0.52449046E-02 -0.50919929E-02
 -0.49031133E-02 -0.46843100E-02 -0.44411571E-02 -0.41787740E-02 -0.39018435E-02
 -0.36146280E-02 -0.33209883E-02 -0.30244008E-02 -0.27279763E-02 -0.24344779E-02
 -0.21463400E-02 -0.18656859E-02 -0.15943466E-02 -0.13338788E-02 -0.10855826E-02
 -0.85051904E-03 -0.62952749E-03 -0.42324241E-03 -0.23210976E-03 -0.56402961E-04
  0.10376167E-03  0.24840998E-03  0.37769566E-03  0.49188638E-03  0.59135069E-03
  0.67654538E-03  0.74800355E-03  0.80632327E-03  0.85215691E-03  0.88620106E-03
  0.90918714E-03  0.92187262E-03  0.92503283E-03  0.91945348E-03  0.90592366E-03
  0.88522957E-03  0.85814876E-03  0.82544492E-03  0.78786327E-03  0.74612644E-03
  0.70093087E-03  0.65294373E-03  0.60280026E-03  0.55110157E-03  0.49841291E-03
  0.44526223E-03  0.39213922E-03  0.33949468E-03  0.28774015E-03  0.23724792E-03
  0.18835129E-03  0.14134508E-03  0.96486365E-04  0.53995441E-04  0.14056967E-04
 -0.23178729E-04 -0.57594200E-04 -0.89103307E-04 -0.11764954E-03 -0.14320424E-03
 -0.16576479E-03 -0.18535272E-03 -0.20201180E-03 -0.21580607E-03 -0.22681796E-03
 -0.23514629E-03 -0.24090443E-03 -0.24421835E-03 -0.24522482E-03 -0.24406963E-03
 -0.24090583E-03 -0.23589212E-03 -0.22919120E-03 -0.22096833E-03 -0.21138986E-03
 -0.20062192E-03 -0.18882916E-03 -0.17617363E-03 -0.16281368E-03 -0.14890304E-03
 -0.13458997E-03 -0.12001643E-03 -0.10531747E-03 -0.90620625E-04 -0.76045432E-04
 -0.61703032E-04 -0.47695858E-04 -0.34117405E-04 -0.21052077E-04 -0.85751112E-05
  0.32474227E-05  0.14358566E-04  0.24710347E-04  0.34263594E-04  0.42987711E-04
  0.50860386E-04  0.57867275E-04  0.64001632E-04  0.69263916E-04  0.73661364E-04
  0.77207543E-04  0.79921878E-04  0.81829173E-04  0.82959107E-04  0.83345741E-04
  0.83027008E-04  0.82044206E-04  0.80441505E-04  0.78265446E-04  0.75564464E-04
  0.72388415E-04  0.68788126E-04  0.64814956E-04  0.60520381E-04  0.55955604E-04
  0.51171181E-04  0.46216675E-04  0.41140341E-04  0.35988831E-04  0.30806925E-04
  0.25637299E-04  0.20520312E-04  0.15493826E-04  0.10593049E-04  0.58504107E-05
  0.12954615E-05 -0.30452002E-05 -0.71479777E-05 -0.10992299E-04 -0.14560619E-04
 -0.17838397E-04 -0.20814055E-04 -0.23478915E-04 -0.25827122E-04 -0.27855546E-04
 -0.29563670E-04 -0.30953467E-04 -0.32029261E-04 -0.32797582E-04 -0.33267009E-04
 -0.33448004E-04 -0.33352746E-04 -0.32994957E-04 -0.32389723E-04 -0.31553317E-04
 -0.30503023E-04 -0.29256955E-04 -0.27833884E-04 -0.26253069E-04 -0.24534084E-04
 -0.22696663E-04 -0.20760540E-04 -0.18745305E-04 -0.16670260E-04 -0.14554292E-04
 -0.12415747E-04 -0.10272318E-04 -0.81409424E-05 -0.60377103E-05 -0.39777802E-05
 -0.19753081E-05 -0.43386093E-07  0.18060086E-05  0.35620539E-05  0.52151129E-05
  0.67567543E-05  0.81797626E-05  0.94781391E-05  0.10647095E-04  0.11683032E-04
  0.12583523E-04  0.13347275E-04  0.13974094E-04  0.14464837E-04  0.14821362E-04
  0.15046473E-04  0.15143859E-04  0.15118025E-04  0.14974231E-04  0.14718418E-04
  0.14357133E-04  0.13897458E-04  0.13346936E-04  0.12713492E-04  0.12005360E-04
  0.11231011E-04  0.10399076E-04  0.95182774E-05  0.85973604E-05  0.76450256E-05
  0.66698665E-05  0.56803091E-05  0.46845559E-05  0.36905336E-05  0.27058443E-05
  0.17377221E-05  0.79299296E-06 -0.12195996E-06 -0.10012268E-05 -0.18393969E-05
 -0.26315796E-05 -0.33734208E-05 -0.40611150E-05 -0.46914125E-05 -0.52616222E-05
 -0.57696111E-05 -0.62137980E-05 -0.65931456E-05 -0.69071465E-05 -0.71558082E-05
 -0.73396328E-05 -0.74595952E-05 -0.75171184E-05 -0.75140456E-05 -0.74526117E-05
 -0.73354114E-05 -0.71653669E-05 -0.69456944E-05 -0.66798686E-05 -0.63715881E-05
 -0.60247393E-05 -0.56433605E-05 -0.52316064E-05 -0.47937129E-05 -0.43339627E-05
 -0.38566515E-05 -0.33660553E-05 -0.28663997E-05 -0.23618297E-05 -0.18563817E-05
 -0.13539576E-05 -0.85829980E-06 -0.37296928E-06  0.98674734E-07  0.55349281E-06
  0.98858111E-06  0.14012849E-05  0.17892098E-05  0.21502304E-05  0.24824975E-05
  0.27844416E-05  0.30547761E-05  0.32924961E-05  0.34968774E-05  0.36674717E-05
  0.38041011E-05  0.39068498E-05  0.39760554E-05  0.40122971E-05  0.40163841E-05
  0.39893414E-05  0.39323950E-05  0.38469565E-05  0.37346061E-05  0.35970755E-05
  0.34362296E-05  0.32540489E-05  0.30526104E-05  0.28340692E-05  0.26006399E-05
  0.23545782E-05  0.20981625E-05  0.18336765E-05  0.15633919E-05  0.12895517E-05
  0.10143546E-05  0.73993985E-06  0.46837335E-06  0.20163437E-06 -0.58396306E-07
 -0.30994740E-06 -0.55136687E-06 -0.78113048E-06 -0.99784921E-06 -0.12002754E-05
 -0.13873076E-05 -0.15579943E-05 -0.17115364E-05 -0.18472885E-05 -0.19647590E-05
 -0.20636087E-05 -0.21436494E-05 -0.22048399E-05 -0.22472823E-05 -0.22712168E-05
 -0.22770159E-05 -0.22651771E-05 -0.22363161E-05 -0.21911581E-05 -0.21305294E-05
 -0.20553483E-05 -0.19666153E-05 -0.18654033E-05 -0.17528473E-05 -0.16301344E-05
 -0.14984933E-05 -0.13591837E-05 -0.12134862E-05 -0.10626922E-05 -0.90809396E-06
 -0.75097461E-06 -0.59259928E-06 -0.43420595E-06 -0.27699708E-06 -0.12213169E-06
  0.29282091E-07  0.17619377E-06  0.31761667E-06  0.45263350E-06  0.58040116E-06
  0.70015495E-06  0.81121205E-06  0.91297425E-06  0.10049301E-05  0.10866561E-05
  0.11578176E-05  0.12181687E-05  0.12675517E-05  0.13058956E-05  0.13332142E-05
  0.13496042E-05  0.13552414E-05  0.13503776E-05  0.13353368E-05  0.13105104E-05
  0.12763528E-05  0.12333759E-05  0.11821441E-05  0.11232684E-05  0.10574007E-05
  0.98522779E-06  0.90746539E-06  0.82485184E-06  0.73814212E-06  0.64810177E-06
  0.55550086E-06  0.46110818E-06  0.36568550E-06  0.26998210E-06  0.17472952E-06
  0.80636584E-07 -0.11615288E-07 -0.10137644E-06 -0.18803297E-06 -0.27101037E-06
 -0.34977679E-06 -0.42384584E-06 -0.49277909E-06 -0.55618803E-06 -0.61373569E-06
 -0.66513783E-06 -0.71016365E-06 -0.74863618E-06 -0.78043217E-06 -0.80548166E-06
 -0.82376709E-06 -0.83532214E-06 -0.84023013E-06 -0.83862215E-06 -0.83067488E-06
 -0.81660808E-06 -0.79668189E-06 -0.77119386E-06 -0.74047581E-06 -0.70489046E-06
 -0.66482797E-06 -0.62070235E-06 -0.57294775E-06 -0.52201477E-06 -0.46836667E-06
 -0.41247556E-06 -0.35481875E-06 -0.29587499E-06 -0.23612090E-06 -0.17602747E-06
 -0.11605668E-06 -0.56658291E-07  0.17332241E-08  0.58701525E-07  0.11385108E-06
  0.16680958E-06  0.21723019E-06  0.26479349E-06  0.30920918E-06  0.35021756E-06
  0.38759073E-06  0.42113351E-06  0.45068411E-06  0.47611453E-06  0.49733073E-06
  0.51427252E-06  0.52691315E-06  0.53525877E-06  0.53934760E-06  0.53924886E-06
  0.53506154E-06  0.52691293E-06  0.51495707E-06  0.49937291E-06  0.48036243E-06
  0.45814857E-06  0.43297310E-06  0.40509439E-06  0.37478505E-06  0.34232963E-06
  0.30802219E-06  0.27216387E-06  0.23506053E-06  0.19702032E-06  0.15835138E-06
  0.11935949E-06  0.80345855E-07  0.41605016E-07  0.34227481E-08 -0.33925840E-07
 -0.70178120E-07 -0.10508562E-06 -0.13841555E-06 -0.16995218E-06 -0.19949808E-06
 -0.22687517E-06 -0.25192559E-06 -0.27451246E-06 -0.29452041E-06 -0.31185595E-06
 -0.32644770E-06 -0.33824643E-06 -0.34722492E-06 -0.35337767E-06 -0.35672048E-06
 -0.35728986E-06 -0.35514227E-06 -0.35035332E-06 -0.34301673E-06 -0.33324325E-06
 -0.32115948E-06 -0.30690656E-06 -0.29063882E-06 -0.27252231E-06 -0.25273337E-06
 -0.23145700E-06 -0.20888540E-06 -0.18521630E-06 -0.16065139E-06 -0.13539477E-06
 -0.10965132E-06 -0.83625193E-07 -0.57518296E-07 -0.31528840E-07 -0.58499368E-08
  0.19331729E-07  0.43837154E-07  0.67496190E-07  0.90148620E-07  0.11164515E-06
  0.13184827E-06  0.15063306E-06  0.16788784E-06  0.18351473E-06  0.19743007E-06
  0.20956477E-06  0.21986452E-06  0.22828987E-06  0.23481622E-06  0.23943372E-06
  0.24214699E-06  0.24297483E-06  0.24194977E-06  0.23911751E-06  0.23453640E-06
  0.22827663E-06  0.22041956E-06  0.21105682E-06  0.20028946E-06  0.18822699E-06
  0.17498636E-06  0.16069099E-06  0.14546971E-06  0.12945563E-06  0.11278514E-06
  0.95596795E-07  0.78030218E-07  0.60225071E-07  0.42319996E-07  0.24451608E-07
  0.67535138E-08 -0.10644619E-07 -0.27617955E-07 -0.44047318E-07 -0.59819975E-07
 -0.74830340E-07 -0.88980626E-07 -0.10218141E-06 -0.11435215E-06 -0.12542160E-06
 -0.13532813E-06 -0.14402007E-06 -0.15145582E-06 -0.15760400E-06 -0.16244350E-06
 -0.16596338E-06 -0.16816283E-06 -0.16905090E-06 -0.16864631E-06 -0.16697707E-06
 -0.16408013E-06 -0.16000089E-06 -0.15479275E-06 -0.14851651E-06 -0.14123981E-06
 -0.13303646E-06 -0.12398580E-06 -0.11417201E-06 -0.10368334E-06 -0.92611431E-07
 -0.81050537E-07 -0.69096779E-07 -0.56847394E-07 -0.44399990E-07 -0.31851810E-07
 -0.19299013E-07 -0.68359820E-08  0.54453510E-08  0.17456141E-07  0.29111233E-07
  0.40329732E-07  0.51035521E-07  0.61157741E-07  0.70631223E-07  0.79396862E-07
  0.87401952E-07  0.94600452E-07  0.10095321E-06  0.10642813E-06  0.11100028E-06
  0.11465192E-06  0.11737255E-06  0.11915882E-06  0.12001442E-06  0.11994996E-06
  0.11898271E-06  0.11713640E-06  0.11444090E-06  0.11093188E-06  0.10665045E-06
  0.10164276E-06  0.95959540E-07  0.89655673E-07  0.82789680E-07  0.75423236E-07
  0.67620644E-07  0.59448315E-07  0.50974231E-07  0.42267412E-07  0.33397379E-07
  0.24433634E-07  0.15445135E-07  0.64997970E-08 -0.23359994E-08 -0.10997873E-07
 -0.19423888E-07 -0.27554969E-07 -0.35335296E-07 -0.42712659E-07 -0.49638782E-07
 -0.56069617E-07 -0.61965597E-07 -0.67291850E-07 -0.72018378E-07 -0.76120194E-07
 -0.79577421E-07 -0.82375353E-07 -0.84504469E-07 -0.85960418E-07 -0.86743960E-07
 -0.86860868E-07 -0.86321806E-07 -0.85142155E-07 -0.83341824E-07 -0.80945019E-07
 -0.77979990E-07 -0.74478751E-07 -0.70476773E-07 -0.66012668E-07 -0.61127837E-07
 -0.55866121E-07 -0.50273430E-07 -0.44397366E-07 -0.38286838E-07 -0.31991674E-07
 -0.25562237E-07 -0.19049041E-07 -0.12502368E-07 -0.59718972E-08  0.49364959E-09
  0.68468609E-08  0.13041964E-07  0.19035140E-07  0.24784816E-07  0.30251938E-07
  0.35400220E-07  0.40196368E-07  0.44610279E-07  0.48615209E-07  0.52187920E-07
  0.55308792E-07  0.57961911E-07  0.60135125E-07  0.61820071E-07  0.63012178E-07
  0.63710635E-07  0.63918335E-07  0.63641794E-07  0.62891043E-07  0.61679492E-07
  0.60023779E-07  0.57943587E-07  0.55461456E-07  0.52602558E-07  0.49394475E-07
  0.45866949E-07  0.42051625E-07  0.37981787E-07  0.33692082E-07  0.29218238E-07
  0.24596782E-07  0.19864754E-07  0.15059421E-07  0.10217999E-07  0.53773725E-08
  0.57382855E-09 -0.41572073E-08 -0.87814198E-08 -0.13265842E-07 -0.17579081E-07
 -0.21691523E-07 -0.25575531E-07 -0.29205614E-07 -0.32558588E-07 -0.35613708E-07
 -0.38352784E-07 -0.40760280E-07 -0.42823385E-07 -0.44532063E-07 -0.45879090E-07
 -0.46860057E-07 -0.47473363E-07 -0.47720181E-07 -0.47604406E-07 -0.47132582E-07
 -0.46313813E-07 -0.45159656E-07 -0.43683993E-07 -0.41902894E-07 -0.39834462E-07
 -0.37498668E-07 -0.34917169E-07 -0.32113125E-07 -0.29111000E-07 -0.25936361E-07
 -0.22615667E-07 -0.19176063E-07 -0.15645164E-07 -0.12050841E-07 -0.84210115E-08
 -0.47834289E-08 -0.11654789E-08  0.24060191E-08  0.59050036E-08  0.93063536E-08
  0.12586061E-07  0.15721395E-07  0.18691048E-07  0.21475276E-07  0.24056022E-07
  0.26417023E-07  0.28543905E-07  0.30424264E-07  0.32047725E-07  0.33405989E-07
  0.34492866E-07  0.35304289E-07  0.35838310E-07  0.36095085E-07  0.36076840E-07
  0.35787824E-07  0.35234245E-07  0.34424199E-07  0.33367577E-07  0.32075966E-07
  0.30562537E-07  0.28841924E-07  0.26930093E-07  0.24844201E-07  0.22602454E-07
  0.20223953E-07  0.17728540E-07  0.15136636E-07  0.12469084E-07  0.97469867E-08
  0.69915421E-08  0.42238874E-08  0.14649408E-08 -0.12647510E-08 -0.39451605E-08
 -0.65569214E-08 -0.90814633E-08 -0.11501138E-07 -0.13799340E-07 -0.15960610E-07
 -0.17970741E-07 -0.19816858E-07 -0.21487502E-07 -0.22972689E-07 -0.24263967E-07
 -0.25354455E-07 -0.26238874E-07 -0.26913559E-07 -0.27376466E-07 -0.27627166E-07
 -0.27666818E-07 -0.27498147E-07 -0.27125394E-07 -0.26554263E-07 -0.25791863E-07
 -0.24846629E-07 -0.23728244E-07 -0.22447547E-07 -0.21016436E-07 -0.19447764E-07
 -0.17755232E-07 -0.15953270E-07 -0.14056925E-07 -0.12081735E-07 -0.10043608E-07
 -0.79586989E-08 -0.58432848E-08 -0.37136418E-08 -0.15859235E-08  0.52395708E-09
  0.26004436E-08  0.46284471E-08  0.65934517E-08  0.84816154E-08  0.10279864E-07
  0.11975976E-07  0.13558666E-07  0.15017652E-07  0.16343718E-07  0.17528772E-07
  0.18565887E-07  0.19449337E-07  0.20174624E-07  0.20738496E-07  0.21138950E-07
  0.21375234E-07  0.21447833E-07  0.21358449E-07  0.21109970E-07  0.20706435E-07
  0.20152987E-07  0.19455819E-07  0.18622113E-07  0.17659974E-07  0.16578357E-07
  0.15386987E-07  0.14096278E-07  0.12717246E-07  0.11261416E-07  0.97407309E-08
  0.81674582E-08  0.65540913E-08  0.49132550E-08  0.32576092E-08  0.15997535E-08
 -0.47865251E-10 -0.16730443E-08 -0.32639123E-08 -0.48090141E-08 -0.62973896E-08
 -0.77186498E-08 -0.90630462E-08 -0.10321535E-07 -0.11485835E-07 -0.12548481E-07
 -0.13502863E-07 -0.14343273E-07 -0.15064928E-07 -0.15663997E-07 -0.16137614E-07
 -0.16483892E-07 -0.16701919E-07 -0.16791753E-07 -0.16754410E-07 -0.16591845E-07
 -0.16306921E-07 -0.15903377E-07 -0.15385794E-07 -0.14759540E-07 -0.14030728E-07
 -0.13206158E-07 -0.12293254E-07 -0.11300006E-07 -0.10234899E-07 -0.91068438E-08
 -0.79251078E-08 -0.66992373E-08 -0.54389851E-08 -0.41542341E-08 -0.28549225E-08
 -0.15509683E-08 -0.25219604E-09  0.10317354E-08  0.22914028E-08  0.35176859E-08
  0.47018314E-08  0.58355137E-08  0.69108912E-08  0.79206591E-08  0.88580964E-08
  0.97171091E-08  0.10492267E-07  0.11178837E-07  0.11772807E-07  0.12270910E-07
  0.12670636E-07  0.12970243E-07  0.13168759E-07  0.13265980E-07  0.13262462E-07
  0.13159507E-07  0.12959143E-07  0.12664101E-07  0.12277784E-07  0.11804238E-07
  0.11248104E-07  0.10614588E-07  0.99094045E-08  0.91387334E-08  0.83091666E-08
  0.74276532E-08  0.65014436E-08  0.55380315E-08  0.45450948E-08  0.35304365E-08
  0.25019242E-08  0.14674313E-08  0.43477746E-09 -0.58832834E-09 -0.15943444E-08
 -0.25759505E-08 -0.35260996E-08 -0.44380669E-08 -0.53054965E-08 -0.61224438E-08
 -0.68834150E-08 -0.75834025E-08 -0.82179162E-08 -0.87830106E-08 -0.92753077E-08
 -0.96920150E-08 -0.10030939E-07 -0.10290496E-07 -0.10469713E-07 -0.10568229E-07
 -0.10586294E-07 -0.10524752E-07 -0.10385034E-07 -0.10169139E-07 -0.98796083E-08
 -0.95195042E-08 -0.90923791E-08 -0.86022432E-08 -0.80535290E-08 -0.74510530E-08
 -0.67999755E-08 -0.61057576E-08 -0.53741166E-08 -0.46109810E-08 -0.38224429E-08
 -0.30147111E-08 -0.21940630E-08 -0.13667972E-08 -0.53918633E-09  0.28256997E-09
 kinetic energy density (partial)
  0.17982701E+03  0.17974965E+03  0.17951779E+03  0.17913200E+03  0.17859322E+03
  0.17790280E+03  0.17706244E+03  0.17607421E+03  0.17494052E+03  0.17366416E+03
  0.17224822E+03  0.17069612E+03  0.16901161E+03  0.16719871E+03  0.16526171E+03
  0.16320519E+03  0.16103393E+03  0.15875297E+03  0.15636753E+03  0.15388303E+03
  0.15130504E+03  0.14863928E+03  0.14589158E+03  0.14306789E+03  0.14017424E+03
  0.13721669E+03  0.13420136E+03  0.13113440E+03  0.12802194E+03  0.12487009E+03
  0.12168492E+03  0.11847245E+03  0.11523863E+03  0.11198929E+03  0.10873018E+03
  0.10546691E+03  0.10220496E+03  0.98949652E+02  0.95706155E+02  0.92479454E+02
  0.89274355E+02  0.86095466E+02  0.82947197E+02  0.79833745E+02  0.76759094E+02
  0.73727007E+02  0.70741023E+02  0.67804453E+02  0.64920378E+02  0.62091647E+02
  0.59320881E+02  0.56610467E+02  0.53962563E+02  0.51379102E+02  0.48861790E+02
  0.46412112E+02  0.44031339E+02  0.41720528E+02  0.39480529E+02  0.37311992E+02
  0.35215374E+02  0.33190942E+02  0.31238785E+02  0.29358816E+02  0.27550786E+02
  0.25814287E+02  0.24148762E+02  0.22553513E+02  0.21027709E+02  0.19570396E+02
  0.18180505E+02  0.16856859E+02  0.15598183E+02  0.14403111E+02  0.13270198E+02
  0.12197921E+02  0.11184697E+02  0.10228881E+02  0.93287796E+01  0.84826583E+01
  0.76887459E+01  0.69452435E+01  0.62503310E+01  0.56021733E+01  0.49989263E+01
  0.44387436E+01  0.39197810E+01  0.34402028E+01  0.29981863E+01  0.25919263E+01
  0.22196400E+01  0.18795706E+01  0.15699913E+01  0.12892086E+01  0.10355657E+01
  0.80744482E+00  0.60327044E+00  0.42151099E+00  0.26068116E+00  0.11934347E+00
 -0.38902136E-02 -0.11035748E+00 -0.20134445E+00 -0.27808500E+00 -0.34176031E+00
 -0.39349854E+00 -0.43437474E+00 -0.46541099E+00 -0.48757662E+00 -0.50178873E+00
 -0.50891271E+00 -0.50976305E+00 -0.50510421E+00 -0.49565162E+00 -0.48207279E+00
 -0.46498852E+00 -0.44497423E+00 -0.42256136E+00 -0.39823877E+00 -0.37245431E+00
 -0.34561635E+00 -0.31809545E+00 -0.29022593E+00 -0.26230756E+00 -0.23460728E+00
 -0.20736084E+00 -0.18077453E+00 -0.15502686E+00 -0.13027022E+00 -0.10663255E+00
 -0.84219007E-01 -0.63113516E-01 -0.43380396E-01 -0.25065880E-01 -0.81996137E-02
  0.72038879E-02  0.21143831E-01  0.33631789E-01  0.44690395E-01  0.54352091E-01
  0.62657935E-01  0.69656461E-01  0.75402603E-01  0.79956670E-01  0.83383389E-01
  0.85750998E-01  0.87130409E-01  0.87594420E-01  0.87216990E-01  0.86072572E-01
  0.84235495E-01  0.81779416E-01  0.78776806E-01  0.75298506E-01  0.71413322E-01
  0.67187670E-01  0.62685275E-01  0.57966907E-01  0.53090159E-01  0.48109274E-01
  0.43075001E-01  0.38034491E-01  0.33031229E-01  0.28104990E-01  0.23291837E-01
  0.18624132E-01  0.14130581E-01  0.98362967E-02  0.57628877E-02  0.19285585E-02
 -0.16517694E-02 -0.49663235E-02 -0.80063343E-02 -0.10765878E-01 -0.13241712E-01
 -0.15433102E-01 -0.17341646E-01 -0.18971090E-01 -0.20327149E-01 -0.21417319E-01
 -0.22250696E-01 -0.22837794E-01 -0.23190362E-01 -0.23321214E-01 -0.23244053E-01
 -0.22973309E-01 -0.22523977E-01 -0.21911469E-01 -0.21151463E-01 -0.20259772E-01
 -0.19252210E-01 -0.18144476E-01 -0.16952041E-01 -0.15690045E-01 -0.14373205E-01
 -0.13015729E-01 -0.11631245E-01 -0.10232731E-01 -0.88324612E-02 -0.74419555E-02
 -0.60719412E-02 -0.47323211E-02 -0.34321502E-02 -0.21796197E-02 -0.98204808E-03
  0.15412004E-03  0.12233099E-02  0.22208054E-02  0.31427336E-02  0.39860425E-02
  0.47484755E-02  0.54285414E-02  0.60254797E-02  0.65392241E-02  0.69703618E-02
  0.73200914E-02  0.75901784E-02  0.77829088E-02  0.79010427E-02  0.79477657E-02
  0.79266414E-02  0.78415626E-02  0.76967038E-02  0.74964740E-02  0.72454700E-02
  0.69484320E-02  0.66101995E-02  0.62356695E-02  0.58297565E-02  0.53973548E-02
  0.49433022E-02  0.44723472E-02  0.39891176E-02  0.34980923E-02  0.30035756E-02
  0.25096739E-02  0.20202750E-02  0.15390310E-02  0.10693423E-02  0.61434561E-03
  0.17690382E-03 -0.24040144E-03 -0.63527476E-03 -0.10057097E-02 -0.13499890E-02
 -0.16666832E-02 -0.19546467E-02 -0.22130120E-02 -0.24411828E-02 -0.26388244E-02
 -0.28058538E-02 -0.29424279E-02 -0.30489300E-02 -0.31259565E-02 -0.31743020E-02
 -0.31949434E-02 -0.31890238E-02 -0.31578364E-02 -0.31028071E-02 -0.30254779E-02
 -0.29274896E-02 -0.28105646E-02 -0.26764908E-02 -0.25271043E-02 -0.23642743E-02
 -0.21898866E-02 -0.20058294E-02 -0.18139787E-02 -0.16161848E-02 -0.14142599E-02
 -0.12099659E-02 -0.10050035E-02 -0.80100256E-03 -0.59951264E-03 -0.40199530E-03
 -0.20981698E-03 -0.24242966E-04  0.15356755E-03  0.32256552E-03  0.48181499E-03
  0.63049521E-03  0.76790173E-03  0.89344659E-03  0.10066577E-02  0.11071774E-02
  0.11947601E-02  0.12692695E-02  0.13306747E-02  0.13790463E-02  0.14145511E-02
  0.14374472E-02  0.14480781E-02  0.14468663E-02  0.14343073E-02  0.14109624E-02
  0.13774522E-02  0.13344491E-02  0.12826703E-02  0.12228707E-02  0.11558357E-02
  0.10823738E-02  0.10033099E-02  0.91947853E-03  0.83171687E-03  0.74085869E-03
  0.64772813E-03  0.55313395E-03  0.45786409E-03  0.36268059E-03  0.26831493E-03
  0.17546378E-03  0.84785131E-04 -0.31050975E-05 -0.87636021E-04 -0.16828431E-03
 -0.24457624E-03 -0.31608936E-03 -0.38245363E-03 -0.44335220E-03 -0.49852174E-03
 -0.54775237E-03 -0.59088719E-03 -0.62782146E-03 -0.65850141E-03 -0.68292269E-03
 -0.70112863E-03 -0.71320803E-03 -0.71929291E-03 -0.71955581E-03 -0.71420711E-03
 -0.70349197E-03 -0.68768726E-03 -0.66709835E-03 -0.64205575E-03 -0.61291173E-03
 -0.58003691E-03 -0.54381684E-03 -0.50464855E-03 -0.46293719E-03 -0.41909273E-03
 -0.37352668E-03 -0.32664901E-03 -0.27886512E-03 -0.23057298E-03 -0.18216041E-03
 -0.13400257E-03 -0.86459574E-04 -0.39874348E-04  0.54293356E-05  0.49148610E-04
  0.91003046E-04  0.13073597E-03  0.16811555E-03  0.20293570E-03  0.23501670E-03
  0.26420565E-03  0.29037670E-03  0.31343106E-03  0.33329684E-03  0.34992863E-03
  0.36330701E-03  0.37343777E-03  0.38035105E-03  0.38410027E-03  0.38476099E-03
  0.38242959E-03  0.37722187E-03  0.36927154E-03  0.35872863E-03  0.34575782E-03
  0.33053676E-03  0.31325432E-03  0.29410877E-03  0.27330606E-03  0.25105796E-03
  0.22758038E-03  0.20309154E-03  0.17781033E-03  0.15195463E-03  0.12573970E-03
  0.99376699E-04  0.73071209E-04  0.47021889E-04  0.21419209E-04 -0.35557074E-05
 -0.27732145E-04 -0.50950740E-04 -0.73064317E-04 -0.93938600E-04 -0.11345282E-03
 -0.13150019E-03 -0.14798827E-03 -0.16283921E-03 -0.17598990E-03 -0.18739195E-03
 -0.19701165E-03 -0.20482971E-03 -0.21084103E-03 -0.21505425E-03 -0.21749131E-03
 -0.21818687E-03 -0.21718765E-03 -0.21455174E-03 -0.21034782E-03 -0.20465434E-03
 -0.19755861E-03 -0.18915593E-03 -0.17954860E-03 -0.16884499E-03 -0.15715850E-03
 -0.14460664E-03 -0.13130995E-03 -0.11739108E-03 -0.10297377E-03 -0.88181923E-04
 -0.73138654E-04 -0.57965414E-04 -0.42781123E-04 -0.27701359E-04 -0.12837591E-04
  0.17035332E-05  0.15820841E-04  0.29419235E-04  0.42410229E-04  0.54712418E-04
  0.66251881E-04  0.76962526E-04  0.86786356E-04  0.95673674E-04  0.10358322E-03
  0.11048224E-03  0.11634650E-03  0.12116022E-03  0.12491594E-03  0.12761439E-03
  0.12926421E-03  0.12988168E-03  0.12949041E-03  0.12812093E-03  0.12581029E-03
  0.12260161E-03  0.11854357E-03  0.11368991E-03  0.10809889E-03  0.10183275E-03
  0.94957096E-04  0.87540356E-04  0.79653184E-04  0.71367868E-04  0.62757751E-04
  0.53896657E-04  0.44858328E-04  0.35715871E-04  0.26541239E-04  0.17404717E-04
  0.83744477E-05 -0.48402180E-06 -0.91081598E-05 -0.17438836E-04 -0.25420675E-04
 -0.33002366E-04 -0.40136943E-04 -0.46782022E-04 -0.52899992E-04 -0.58458178E-04
 -0.63428950E-04 -0.67789804E-04 -0.71523394E-04 -0.74617529E-04 -0.77065131E-04
 -0.78864157E-04 -0.80017487E-04 -0.80532772E-04 -0.80422259E-04 -0.79702584E-04
 -0.78394532E-04 -0.76522780E-04 -0.74115616E-04 -0.71204633E-04 -0.67824413E-04
 -0.64012195E-04 -0.59807528E-04 -0.55251921E-04 -0.50388483E-04 -0.45261564E-04
 -0.39916390E-04 -0.34398707E-04 -0.28754429E-04 -0.23029286E-04 -0.17268494E-04
 -0.11516424E-04 -0.58162981E-05 -0.20989358E-06  0.52627349E-05  0.10563510E-04
  0.15656568E-04  0.20508471E-04  0.25088401E-04  0.29368321E-04  0.33323119E-04
  0.36930729E-04  0.40172213E-04  0.43031835E-04  0.45497099E-04  0.47558764E-04
  0.49210835E-04  0.50450531E-04  0.51278231E-04  0.51697394E-04  0.51714459E-04
  0.51338730E-04  0.50582239E-04  0.49459589E-04  0.47987787E-04  0.46186060E-04
  0.44075662E-04  0.41679664E-04  0.39022746E-04  0.36130967E-04  0.33031549E-04
  0.29752638E-04  0.26323079E-04  0.22772182E-04  0.19129493E-04  0.15424570E-04
  0.11686761E-04  0.79449915E-05  0.42275557E-05  0.56192309E-06 -0.30254487E-05
 -0.65092880E-05 -0.98656709E-05 -0.13072168E-04 -0.16107980E-04 -0.18954053E-04
 -0.21593182E-04 -0.24010101E-04 -0.26191548E-04 -0.28126324E-04 -0.29805325E-04
 -0.31221567E-04 -0.32370193E-04 -0.33248454E-04 -0.33855692E-04 -0.34193291E-04
 -0.34264628E-04 -0.34074997E-04 -0.33631536E-04 -0.32943123E-04 -0.32020282E-04
 -0.30875060E-04 -0.29520910E-04 -0.27972558E-04 -0.26245862E-04 -0.24357677E-04
 -0.22325700E-04 -0.20168325E-04 -0.17904487E-04 -0.15553514E-04 -0.13134968E-04
 -0.10668503E-04 -0.81737071E-05 -0.56699639E-05 -0.31763110E-05 -0.71130505E-06
  0.17071060E-05  0.40617037E-05  0.63361122E-05  0.85149020E-05  0.10583685E-04
  0.12529201E-04  0.14339391E-04  0.16003461E-04  0.17511940E-04  0.18856719E-04
  0.20031084E-04  0.21029737E-04  0.21848807E-04  0.22485847E-04  0.22939826E-04
  0.23211102E-04  0.23301396E-04  0.23213748E-04  0.22952469E-04  0.22523079E-04
  0.21932247E-04  0.21187711E-04  0.20298205E-04  0.19273367E-04  0.18123655E-04
  0.16860247E-04  0.15494946E-04  0.14040079E-04  0.12508395E-04  0.10912959E-04
  0.92670506E-05  0.75840604E-05  0.58773870E-05  0.41603376E-05  0.24460306E-05
  0.74730163E-06 -0.92338655E-06 -0.25540295E-05 -0.41331612E-05 -0.56499293E-05
 -0.70941632E-05 -0.84564366E-05 -0.97281234E-05 -0.10901445E-04 -0.11969514E-04
 -0.12926364E-04 -0.13766980E-04 -0.14487314E-04 -0.15084300E-04 -0.15555852E-04
 -0.15900866E-04 -0.16119205E-04 -0.16211684E-04 -0.16180043E-04 -0.16026920E-04
 -0.15755807E-04 -0.15371016E-04 -0.14877623E-04 -0.14281421E-04 -0.13588862E-04
 -0.12806993E-04 -0.11943396E-04 -0.11006119E-04 -0.10003608E-04 -0.89446366E-05
 -0.78382330E-05 -0.66936093E-05 -0.55200887E-05 -0.43270340E-05 -0.31237772E-05
 -0.19195502E-05 -0.72341834E-06  0.45578454E-06  0.16095172E-05  0.27295893E-05
  0.38082160E-05  0.48380680E-05  0.58123181E-05  0.67246824E-05  0.75694571E-05
  0.83415502E-05  0.90365081E-05  0.96505370E-05  0.10180519E-04  0.10624022E-04
  0.10979306E-04  0.11245325E-04  0.11421717E-04  0.11508799E-04  0.11507552E-04
  0.11419596E-04  0.11247174E-04  0.10993118E-04  0.10660819E-04  0.10254193E-04
  0.97776397E-05  0.92360032E-05  0.86345262E-05  0.79788043E-05  0.72747381E-05
  0.65284834E-05  0.57464009E-05  0.49350047E-05  0.41009116E-05  0.32507896E-05
  0.23913071E-05  0.15290835E-05  0.67064065E-06 -0.17764422E-06 -0.10095832E-05
 -0.18192206E-05 -0.26008733E-05 -0.33491679E-05 -0.40590759E-05 -0.47259445E-05
 -0.53455250E-05 -0.59139973E-05 -0.64279906E-05 -0.68846011E-05 -0.72814047E-05
 -0.76164675E-05 -0.78883511E-05 -0.80961148E-05 -0.82393140E-05 -0.83179945E-05
 -0.83326844E-05 -0.82843809E-05 -0.81745352E-05 -0.80050339E-05 -0.77781770E-05
 -0.74966541E-05 -0.71635172E-05 -0.67821518E-05 -0.63562462E-05 -0.58897584E-05
 -0.53868824E-05 -0.48520123E-05 -0.42897068E-05 -0.37046518E-05 -0.31016239E-05
 -0.24854526E-05 -0.18609837E-05 -0.12330432E-05 -0.60640114E-06  0.14262885E-07
  0.62439283E-06  0.12195883E-05  0.17956347E-05  0.23485315E-05  0.28745185E-05
  0.33700998E-05  0.38320652E-05  0.42575100E-05  0.46438509E-05  0.49888399E-05
  0.52905762E-05  0.55475136E-05  0.57584669E-05  0.59226143E-05  0.60394978E-05
  0.61090202E-05  0.61314403E-05  0.61073650E-05  0.60377385E-05  0.59238306E-05
  0.57672211E-05  0.55697834E-05  0.53336654E-05  0.50612692E-05  0.47552292E-05
  0.44183881E-05  0.40537728E-05  0.36645686E-05  0.32540931E-05  0.28257691E-05
  0.23830973E-05  0.19296293E-05  0.14689398E-05  0.10046000E-05  0.54015093E-06
  0.79077324E-07 -0.37521724E-06 -0.81943450E-06 -0.12504044E-05 -0.16651066E-05
 -0.20606909E-05 -0.24344952E-05 -0.27840630E-05 -0.31071580E-05 -0.34017773E-05
 -0.36661630E-05 -0.38988108E-05 -0.40984778E-05 -0.42641872E-05 -0.43952318E-05
 -0.44911743E-05 -0.45518473E-05 -0.45773494E-05 -0.45680406E-05 -0.45245358E-05
 -0.44476958E-05 -0.43386173E-05 -0.41986207E-05 -0.40292372E-05 -0.38321937E-05
 -0.36093973E-05 -0.33629177E-05 -0.30949697E-05 -0.28078943E-05 -0.25041393E-05
 -0.21862392E-05 -0.18567954E-05 -0.15184551E-05 -0.11738916E-05 -0.82578347E-06
 -0.47679459E-06 -0.12955458E-06  0.21336029E-06  0.54944555E-06  0.87628605E-06
  0.11915726E-05  0.14931178E-05  0.17788700E-05  0.20469270E-05  0.22955478E-05
  0.25231630E-05  0.27283843E-05  0.29100115E-05  0.30670391E-05  0.31986609E-05
  0.33042723E-05  0.33834728E-05  0.34360650E-05  0.34620536E-05  0.34616420E-05
  0.34352282E-05  0.33833982E-05  0.33069198E-05  0.32067331E-05  0.30839418E-05
  0.29398020E-05  0.27757109E-05  0.25931939E-05  0.23938916E-05  0.21795459E-05
  0.19519853E-05  0.17131101E-05  0.14648772E-05  0.12092845E-05  0.94835555E-06
  0.68412414E-06  0.41861878E-06  0.15384779E-06 -0.10821543E-06 -0.36564657E-06
 -0.61658411E-06 -0.85924223E-06 -0.10919230E-05 -0.13130279E-05 -0.15210681E-05
 -0.17146740E-05 -0.18926041E-05 -0.20537516E-05 -0.21971516E-05 -0.23219857E-05
 -0.24275859E-05 -0.25134380E-05 -0.25791824E-05 -0.26246154E-05 -0.26496878E-05
 -0.26545035E-05 -0.26393162E-05 -0.26045256E-05 -0.25506721E-05 -0.24784311E-05
 -0.23886057E-05 -0.22821189E-05 -0.21600054E-05 -0.20234017E-05 -0.18735368E-05
 -0.17117211E-05 -0.15393361E-05 -0.13578225E-05 -0.11686690E-05 -0.97340032E-06
 -0.77356556E-06 -0.57072602E-06 -0.36644353E-06 -0.16226878E-06  0.40270117E-07
  0.23967868E-06  0.43450675E-06  0.62335868E-06  0.80490301E-06  0.97788145E-06
  0.11411173E-05  0.12935230E-05  0.14341072E-05  0.15619805E-05  0.16763610E-05
  0.17765785E-05  0.18620778E-05  0.19324216E-05  0.19872917E-05  0.20264901E-05
  0.20499387E-05  0.20576781E-05  0.20498659E-05  0.20267736E-05  0.19887834E-05
  0.19363835E-05  0.18701633E-05  0.17908072E-05  0.16990887E-05  0.15958630E-05
  0.14820597E-05  0.13586750E-05  0.12267630E-05  0.10874272E-05  0.94181185E-06
  0.79109246E-06  0.63646690E-06  0.47914600E-06  0.32034444E-06  0.16127158E-06
  0.31225318E-08 -0.15293058E-06 -0.30574702E-06 -0.45422557E-06 -0.59731219E-06
 -0.73400726E-06 -0.86337229E-06 -0.98453614E-06 -0.10967006E-05 -0.11991453E-05
 -0.12912321E-05 -0.13724090E-05 -0.14422127E-05 -0.15002709E-05 -0.15463044E-05
 -0.15801273E-05 -0.16016475E-05 -0.16108661E-05 -0.16078763E-05 -0.15928609E-05
 -0.15660906E-05 -0.15279203E-05 -0.14787853E-05 -0.14191972E-05 -0.13497392E-05
 -0.12710605E-05 -0.11838708E-05 -0.10889339E-05 -0.98706188E-06 -0.87910792E-06
 -0.76595953E-06 -0.64853154E-06 -0.52775887E-06 -0.40458930E-06 -0.27997625E-06
 -0.15487156E-06 -0.30218457E-07  0.93055424E-07  0.21404472E-06  0.33187281E-06
  0.44569803E-06  0.55471943E-06  0.65818228E-06  0.75538309E-06  0.84567420E-06
  0.92846790E-06  0.10032400E-05  0.10695331E-05  0.11269589E-05  0.11752003E-05
  0.12140130E-05  0.12432262E-05  0.12627431E-05  0.12725407E-05  0.12726686E-05
  0.12632484E-05  0.12444713E-05  0.12165962E-05  0.11799466E-05  0.11349076E-05
  0.10819220E-05  0.10214865E-05  0.95414738E-06  0.88049544E-06  0.80116134E-06
  0.71681029E-06  0.62813666E-06  0.53585845E-06  0.44071160E-06  0.34344431E-06
  0.24481130E-06  0.14556808E-06  0.46465309E-07 -0.51756740E-07 -0.14837357E-06
 -0.24268169E-06 -0.33400358E-06 -0.42169244E-06 -0.50513662E-06 -0.58376377E-06
 -0.65704462E-06 -0.72449638E-06 -0.78568577E-06 -0.84023168E-06 -0.88780733E-06
 -0.92814205E-06 -0.96102262E-06 -0.98629415E-06 -0.10038605E-05 -0.10136844E-05
 -0.10157867E-05 -0.10102460E-05 -0.99719672E-06 -0.97682807E-06 -0.94938151E-06
 -0.91514850E-06 -0.87446769E-06 -0.82772180E-06 -0.77533426E-06 -0.71776551E-06
 -0.65550918E-06 -0.58908794E-06 -0.51904929E-06 -0.44596117E-06 -0.37040746E-06
 -0.29298343E-06 -0.21429119E-06 -0.13493507E-06 -0.55517121E-07  0.23367363E-07
 atomic pseudo charge-density
  0.80000000E+01  0.79911173E+01  0.79646079E+01  0.79208818E+01  0.78606043E+01
  0.77846685E+01  0.76941617E+01  0.75903249E+01  0.74745106E+01  0.73481389E+01
  0.72126564E+01  0.70694989E+01  0.69200584E+01  0.67656568E+01  0.66075258E+01
  0.64467923E+01  0.62844702E+01  0.61214572E+01  0.59585348E+01  0.57963734E+01
  0.56355380E+01  0.54764966E+01  0.53196300E+01  0.51652406E+01  0.50135629E+01
  0.48647723E+01  0.47189942E+01  0.45763118E+01  0.44367737E+01  0.43003998E+01
  0.41671875E+01  0.40371159E+01  0.39101506E+01  0.37862463E+01  0.36653504E+01
  0.35474051E+01  0.34323489E+01  0.33201189E+01  0.32106512E+01  0.31038827E+01
  0.29997508E+01  0.28981949E+01  0.27991561E+01  0.27025778E+01  0.26084055E+01
  0.25165874E+01  0.24270739E+01  0.23398178E+01  0.22547743E+01  0.21719005E+01
  0.20911558E+01  0.20125014E+01  0.19359000E+01  0.18613164E+01  0.17887163E+01
  0.17180670E+01  0.16493370E+01  0.15824955E+01  0.15175130E+01  0.14543602E+01
  0.13930090E+01  0.13334315E+01  0.12756004E+01  0.12194887E+01  0.11650697E+01
  0.11123169E+01  0.10612039E+01  0.10117047E+01  0.96379299E+00  0.91744270E+00
  0.87262771E+00  0.82932186E+00  0.78749895E+00  0.74713268E+00  0.70819668E+00
  0.67066449E+00  0.63450954E+00  0.59970514E+00  0.56622451E+00  0.53404076E+00
  0.50312688E+00  0.47345579E+00  0.44500029E+00  0.41773312E+00  0.39162694E+00
  0.36665434E+00  0.34278788E+00  0.32000006E+00  0.29826339E+00  0.27755035E+00
  0.25783344E+00  0.23908520E+00  0.22127819E+00  0.20438505E+00  0.18837850E+00
  0.17323137E+00  0.15891658E+00  0.14540723E+00  0.13267655E+00  0.12069796E+00
  0.10944508E+00  0.98891737E-01  0.89012015E-01  0.79780250E-01  0.71171057E-01
  0.63159351E-01  0.55720366E-01  0.48829675E-01  0.42463206E-01  0.36597264E-01
  0.31208547E-01  0.26274162E-01  0.21771648E-01  0.17678983E-01  0.13974609E-01
  0.10637439E-01  0.76468762E-02  0.49828265E-02  0.26257088E-02  0.55646820E-03
 -0.12434135E-02 -0.27919085E-02 -0.41064339E-02 -0.52038444E-02 -0.61004253E-02
 -0.68118873E-02 -0.73533614E-02 -0.77393960E-02 -0.79839543E-02 -0.81004127E-02
 -0.81015612E-02 -0.79996036E-02 -0.78061600E-02 -0.75322696E-02 -0.71883947E-02
 -0.67844257E-02 -0.63296875E-02 -0.58329466E-02 -0.53024186E-02 -0.47457779E-02
 -0.41701672E-02 -0.35822081E-02 -0.29880130E-02 -0.23931972E-02 -0.18028919E-02
 -0.12217582E-02 -0.65400109E-03 -0.10338483E-03  0.42675184E-03  0.93347959E-03
  0.14142621E-02  0.18669394E-02  0.22897105E-02  0.26811161E-02  0.30400212E-02
  0.33655972E-02  0.36573039E-02  0.39148718E-02  0.41382843E-02  0.43277596E-02
  0.44837331E-02  0.46068400E-02  0.46978978E-02  0.47578891E-02  0.47879451E-02
  0.47893290E-02  0.47634201E-02  0.47116980E-02  0.46357273E-02  0.45371436E-02
  0.44176386E-02  0.42789471E-02  0.41228338E-02  0.39510808E-02  0.37654761E-02
  0.35678026E-02  0.33598271E-02  0.31432913E-02  0.29199022E-02  0.26913238E-02
  0.24591697E-02  0.22249959E-02  0.19902941E-02  0.17564871E-02  0.15249226E-02
  0.12968701E-02  0.10735164E-02  0.85596313E-03  0.64522435E-03  0.44222463E-03
  0.24779803E-03  0.62687534E-04 -0.11245501E-03 -0.27706843E-03 -0.43068122E-03
 -0.57291013E-03 -0.70345832E-03 -0.82211304E-03 -0.92874303E-03 -0.10232955E-02
 -0.11057929E-02 -0.11763292E-02 -0.12350663E-02 -0.12822297E-02 -0.13181046E-02
 -0.13430311E-02 -0.13574002E-02 -0.13616488E-02 -0.13562551E-02 -0.13417342E-02
 -0.13186331E-02 -0.12875259E-02 -0.12490098E-02 -0.12036996E-02 -0.11522240E-02
 -0.10952207E-02 -0.10333327E-02 -0.96720351E-03 -0.89747388E-03 -0.82477768E-03
 -0.74973847E-03 -0.67296618E-03 -0.59505394E-03 -0.51657527E-03 -0.43808134E-03
 -0.36009862E-03 -0.28312670E-03 -0.20763639E-03 -0.13406801E-03 -0.62830028E-04
  0.57021397E-05  0.71187036E-04  0.13331785E-03  0.19182285E-03  0.24646563E-03
  0.29704506E-03  0.34339509E-03  0.38538434E-03  0.42291545E-03  0.45592432E-03
  0.48437910E-03  0.50827909E-03  0.52765348E-03  0.54255989E-03  0.55308291E-03
  0.55933243E-03  0.56144191E-03  0.55956661E-03  0.55388172E-03  0.54458042E-03
  0.53187195E-03  0.51597963E-03  0.49713885E-03  0.47559511E-03  0.45160204E-03
  0.42541945E-03  0.39731140E-03  0.36754434E-03  0.33638532E-03  0.30410022E-03
  0.27095207E-03  0.23719950E-03  0.20309516E-03  0.16888437E-03  0.13480381E-03
  0.10108024E-03  0.67929485E-04  0.35555389E-04  0.41489493E-05 -0.26112445E-04
 -0.55065669E-04 -0.82562395E-04 -0.10846952E-03 -0.13266946E-03 -0.15506038E-03
 -0.17555625E-03 -0.19408686E-03 -0.21059769E-03 -0.22504970E-03 -0.23741905E-03
 -0.24769667E-03 -0.25588783E-03 -0.26201156E-03 -0.26610008E-03 -0.26819806E-03
 -0.26836193E-03 -0.26665908E-03 -0.26316704E-03 -0.25797258E-03 -0.25117088E-03
 -0.24286453E-03 -0.23316266E-03 -0.22217996E-03 -0.21003575E-03 -0.19685300E-03
 -0.18275744E-03 -0.16787660E-03 -0.15233890E-03 -0.13627281E-03 -0.11980596E-03
 -0.10306434E-03 -0.86171519E-04 -0.69247908E-04 -0.52410070E-04 -0.35770077E-04
 -0.19434914E-04 -0.35059429E-05  0.11921584E-04  0.26758952E-04  0.40924361E-04
  0.54343233E-04  0.66948474E-04  0.78680674E-04  0.89488248E-04  0.99327525E-04
  0.10816278E-03  0.11596620E-03  0.12271786E-03  0.12840552E-03  0.13302453E-03
  0.13657759E-03  0.13907449E-03  0.14053183E-03  0.14097268E-03  0.14042624E-03
  0.13892742E-03  0.13651646E-03  0.13323847E-03  0.12914299E-03  0.12428350E-03
  0.11871697E-03  0.11250335E-03  0.10570509E-03  0.98386621E-04  0.90613899E-04
  0.82453896E-04  0.73974126E-04  0.65242181E-04  0.56325278E-04  0.47289819E-04
  0.38200976E-04  0.29122295E-04  0.20115318E-04  0.11239240E-04  0.25505781E-05
 -0.58971171E-05 -0.14053534E-04 -0.21871834E-04 -0.29308862E-04 -0.36325322E-04
 -0.42885924E-04 -0.48959499E-04 -0.54519084E-04 -0.59541978E-04 -0.64009762E-04
 -0.67908302E-04 -0.71227711E-04 -0.73962291E-04 -0.76110448E-04 -0.77674583E-04
 -0.78660957E-04 -0.79079537E-04 -0.78943821E-04 -0.78270648E-04 -0.77079985E-04
 -0.75394704E-04 -0.73240348E-04 -0.70644881E-04 -0.67638434E-04 -0.64253040E-04
 -0.60522368E-04 -0.56481450E-04 -0.52166412E-04 -0.47614198E-04 -0.42862305E-04
 -0.37948514E-04 -0.32910634E-04 -0.27786247E-04 -0.22612464E-04 -0.17425695E-04
 -0.12261423E-04 -0.71539946E-05 -0.21364234E-05  0.27597914E-05  0.75048332E-05
  0.12070720E-04  0.16431437E-04  0.20563059E-04  0.24443850E-04  0.28054346E-04
  0.31377423E-04  0.34398348E-04  0.37104810E-04  0.39486936E-04  0.41537290E-04
  0.43250856E-04  0.44625009E-04  0.45659462E-04  0.46356209E-04  0.46719451E-04
  0.46755506E-04  0.46472713E-04  0.45881320E-04  0.44993368E-04  0.43822564E-04
  0.42384142E-04  0.40694726E-04  0.38772181E-04  0.36635463E-04  0.34304464E-04
  0.31799857E-04  0.29142938E-04  0.26355469E-04  0.23459522E-04  0.20477327E-04
  0.17431116E-04  0.14342981E-04  0.11234730E-04  0.81277503E-05  0.50428769E-05
  0.20002709E-05 -0.98069760E-06 -0.38815564E-05 -0.66848309E-05 -0.93741335E-05
 -0.11934245E-04 -0.14351184E-04 -0.16612270E-04 -0.18706173E-04 -0.20622953E-04
 -0.22354095E-04 -0.23892525E-04 -0.25232623E-04 -0.26370225E-04 -0.27302610E-04
 -0.28028489E-04 -0.28547973E-04 -0.28862539E-04 -0.28974989E-04 -0.28889397E-04
 -0.28611052E-04 -0.28146395E-04 -0.27502945E-04 -0.26689229E-04 -0.25714697E-04
 -0.24589641E-04 -0.23325106E-04 -0.21932798E-04 -0.20424995E-04 -0.18814449E-04
 -0.17114295E-04 -0.15337952E-04 -0.13499030E-04 -0.11611239E-04 -0.96882919E-05
 -0.77438169E-05 -0.57912710E-05 -0.38438549E-05 -0.19144322E-05 -0.15453648E-07
  0.18411153E-05  0.36438615E-05  0.53819862E-05  0.70453618E-05  0.86245826E-05
  0.10111010E-04  0.11496812E-04  0.12774996E-04  0.13939434E-04  0.14984887E-04
  0.15907016E-04  0.16702392E-04  0.17368497E-04  0.17903720E-04  0.18307351E-04
  0.18579561E-04  0.18721383E-04  0.18734690E-04  0.18622158E-04  0.18387237E-04
  0.18034106E-04  0.17567638E-04  0.16993342E-04  0.16317326E-04  0.15546232E-04
  0.14687191E-04  0.13747762E-04  0.12735870E-04  0.11659755E-04  0.10527904E-04
  0.93489942E-05  0.81318307E-05  0.68852878E-05  0.56182487E-05  0.43395478E-05
  0.30579138E-05  0.17819153E-05  0.51990757E-06 -0.72001671E-06 -0.19300755E-05
 -0.31028415E-05 -0.42312836E-05 -0.53088045E-05 -0.63292751E-05 -0.72870649E-05
 -0.81770688E-05 -0.89947300E-05 -0.97360585E-05 -0.10397646E-04 -0.10976677E-04
 -0.11470933E-04 -0.11878801E-04 -0.12199265E-04 -0.12431905E-04 -0.12576889E-04
 -0.12634956E-04 -0.12607406E-04 -0.12496074E-04 -0.12303315E-04 -0.12031973E-04
 -0.11685353E-04 -0.11267197E-04 -0.10781644E-04 -0.10233197E-04 -0.96266901E-05
 -0.89672485E-05 -0.82602485E-05 -0.75112789E-05 -0.67261006E-05 -0.59106051E-05
 -0.50707742E-05 -0.42126388E-05 -0.33422386E-05 -0.24655827E-05 -0.15886105E-05
 -0.71715452E-06  0.14309605E-06  0.98662997E-06  0.18081467E-05  0.26025872E-05
  0.33651630E-05  0.40913822E-05  0.47770742E-05  0.54184106E-05  0.60119246E-05
  0.65545272E-05  0.70435208E-05  0.74766095E-05  0.78519080E-05  0.81679457E-05
  0.84236699E-05  0.86184448E-05  0.87520489E-05  0.88246689E-05  0.88368914E-05
  0.87896925E-05  0.86844240E-05  0.85227989E-05  0.83068732E-05  0.80390270E-05
  0.77219430E-05  0.73585840E-05  0.69521684E-05  0.65061448E-05  0.60241655E-05
  0.55100589E-05  0.49678015E-05  0.44014889E-05  0.38153072E-05  0.32135038E-05
  0.26003583E-05  0.19801537E-05  0.13571483E-05  0.73554792E-06  0.11947906E-06
 -0.48703712E-06 -0.10801095E-05 -0.16560008E-05 -0.22111492E-05 -0.27421896E-05
 -0.32459726E-05 -0.37195813E-05 -0.41603474E-05 -0.45658645E-05 -0.49339998E-05
 -0.52629042E-05 -0.55510193E-05 -0.57970838E-05 -0.60001364E-05 -0.61595180E-05
 -0.62748709E-05 -0.63461364E-05 -0.63735504E-05 -0.63576376E-05 -0.62992029E-05
 -0.61993218E-05 -0.60593293E-05 -0.58808066E-05 -0.56655668E-05 -0.54156394E-05
 -0.51332533E-05 -0.48208190E-05 -0.44809094E-05 -0.41162407E-05 -0.37296517E-05
 -0.33240830E-05 -0.29025563E-05 -0.24681525E-05 -0.20239905E-05 -0.15732061E-05
 -0.11189302E-05 -0.66426883E-06 -0.21228211E-06  0.23403502E-06  0.67177192E-06
  0.10981204E-05  0.15103917E-05  0.19060329E-05  0.22826418E-05  0.26379804E-05
  0.29699879E-05  0.32767912E-05  0.35567149E-05  0.38082896E-05  0.40302582E-05
  0.42215815E-05  0.43814418E-05  0.45092448E-05  0.46046206E-05  0.46674224E-05
  0.46977244E-05  0.46958180E-05  0.46622064E-05  0.45975983E-05  0.45029000E-05
  0.43792061E-05  0.42277900E-05  0.40500920E-05  0.38477076E-05  0.36223743E-05
  0.33759580E-05  0.31104385E-05  0.28278944E-05  0.25304878E-05  0.22204487E-05
  0.19000586E-05  0.15716349E-05  0.12375145E-05  0.90003806E-06  0.56153382E-06
  0.22430251E-06 -0.10939784E-06 -0.43736648E-06 -0.75747385E-06 -0.10676749E-05
 -0.13660215E-05 -0.16506744E-05 -0.19199135E-05 -0.21721483E-05 -0.24059263E-05
 -0.26199406E-05 -0.28130372E-05 -0.29842200E-05 -0.31326552E-05 -0.32576751E-05
 -0.33587794E-05 -0.34356366E-05 -0.34880839E-05 -0.35161253E-05 -0.35199298E-05
 -0.34998272E-05 -0.34563040E-05 -0.33899978E-05 -0.33016907E-05 -0.31923018E-05
 -0.30628792E-05 -0.29145911E-05 -0.27487160E-05 -0.25666326E-05 -0.23698091E-05
 -0.21597919E-05 -0.19381938E-05 -0.17066827E-05 -0.14669692E-05 -0.12207944E-05
 -0.96991795E-06 -0.71610560E-06 -0.46111747E-06 -0.20669612E-06  0.45444944E-07
  0.29363241E-06  0.53624387E-06  0.77171804E-06  0.99856441E-06  0.12153723E-05
  0.14208192E-05  0.16136785E-05  0.17928263E-05  0.19572476E-05  0.21060415E-05
  0.22384257E-05  0.23537401E-05  0.24514493E-05  0.25311447E-05  0.25925454E-05
  0.26354980E-05  0.26599760E-05  0.26660783E-05  0.26540263E-05  0.26241612E-05
  0.25769393E-05  0.25129282E-05  0.24328002E-05  0.23373273E-05  0.22273741E-05
  0.21038905E-05  0.19679045E-05  0.18205136E-05  0.16628768E-05  0.14962060E-05
  0.13217565E-05  0.11408184E-05  0.95470741E-06  0.76475518E-06  0.57230051E-06
  0.37868003E-06  0.18521924E-06 -0.67762505E-08 -0.19602928E-06 -0.38129933E-06
 -0.56139033E-06 -0.73515817E-06 -0.90151758E-06 -0.10594487E-05 -0.12080029E-05
 -0.13463084E-05 -0.14735747E-05 -0.15890971E-05 -0.16922600E-05 -0.17825398E-05
 -0.18595073E-05 -0.19228290E-05 -0.19722683E-05 -0.20076853E-05 -0.20290367E-05
 -0.20363747E-05 -0.20298452E-05 -0.20096853E-05 -0.19762210E-05 -0.19298630E-05
 -0.18711033E-05 -0.18005106E-05 -0.17187252E-05 -0.16264539E-05 -0.15244642E-05
 -0.14135784E-05 -0.12946670E-05 -0.11686427E-05 -0.10364530E-05 -0.89907399E-06
 -0.75750295E-06 -0.61275152E-06 -0.46583869E-06 -0.31778381E-06 -0.16959983E-06
 -0.22286468E-07  0.12317620E-06  0.26583413E-06  0.40476531E-06  0.53908547E-06
  0.66795358E-06  0.79057677E-06  0.90621508E-06  0.10141856E-05  0.11138664E-05
  0.12046995E-05  0.12861942E-05  0.13579292E-05  0.14195544E-05  0.14707921E-05
  0.15114385E-05  0.15413634E-05  0.15605102E-05  0.15688954E-05  0.15666076E-05
  0.15538055E-05  0.15307161E-05  0.14976326E-05  0.14549108E-05  0.14029664E-05
  0.13422713E-05  0.12733496E-05  0.11967734E-05  0.11131582E-05  0.10231587E-05
  0.92746327E-06  0.82678913E-06  0.72187732E-06  0.61348727E-06  0.50239152E-06
  0.38937042E-06  0.27520676E-06  0.16068058E-06  0.46563960E-07 -0.66383994E-07
 -0.17742204E-06 -0.28583152E-06 -0.39092081E-06 -0.49202960E-06 -0.58853283E-06
 -0.67984445E-06 -0.76542073E-06 -0.84476336E-06 -0.91742216E-06 -0.98299742E-06
 -0.10411419E-05 -0.10915625E-05 -0.11340213E-05 -0.11683367E-05 -0.11943838E-05
 -0.12120942E-05 -0.12214561E-05 -0.12225136E-05 -0.12153653E-05 -0.12001633E-05
 -0.11771116E-05 -0.11464636E-05 -0.11085202E-05 -0.10636269E-05 -0.10121712E-05
 -0.95457921E-06 -0.89131264E-06 -0.82286501E-06 -0.74975807E-06 -0.67253802E-06
 -0.59177151E-06 -0.50804165E-06 -0.42194396E-06 -0.33408222E-06 -0.24506441E-06
 -0.15549859E-06 -0.65988895E-07  0.22868417E-07  0.11048883E-06  0.19630328E-06
  0.27976174E-06  0.36033661E-06  0.43752596E-06  0.51085648E-06  0.57988633E-06
  0.64420761E-06  0.70344868E-06  0.75727616E-06  0.80539668E-06  0.84755828E-06
  0.88355166E-06  0.91321097E-06  0.93641441E-06  0.95308449E-06  0.96318802E-06
  0.96673579E-06  0.96378197E-06  0.95442321E-06  0.93879755E-06  0.91708294E-06
  0.88949565E-06  0.85628834E-06  0.81774799E-06  0.77419360E-06  0.72597366E-06
  0.67346356E-06  0.61706276E-06  0.55719186E-06  0.49428960E-06  0.42880976E-06
  0.36121793E-06  0.29198836E-06  0.22160069E-06  0.15053674E-06  0.79277294E-07
  0.82989253E-08 -0.61929087E-07 -0.13094778E-06 -0.19831143E-06 -0.26359033E-06
 -0.32637346E-06 -0.38627099E-06 -0.44291660E-06 -0.49596968E-06 -0.54511723E-06
 -0.59007567E-06 -0.63059236E-06 -0.66644694E-06 -0.69745240E-06 -0.72345600E-06
 -0.74433984E-06 -0.76002130E-06 -0.77045319E-06 -0.77562365E-06 -0.77555587E-06
 -0.77030755E-06 -0.75997015E-06 -0.74466788E-06 -0.72455659E-06 -0.69982235E-06
 -0.67067990E-06 -0.63737096E-06 -0.60016229E-06 -0.55934369E-06 -0.51522584E-06
 -0.46813802E-06 -0.41842571E-06 -0.36644818E-06 -0.31257592E-06 -0.25718811E-06
 -0.20066997E-06 -0.14341022E-06 -0.85798395E-07 -0.28222296E-07  0.28934562E-07
  0.85295454E-07  0.14049287E-06  0.19417084E-06  0.24598720E-06  0.29561570E-06
  0.34274800E-06  0.38709556E-06  0.42839130E-06  0.46639122E-06  0.50087571E-06
  0.53165081E-06  0.55854925E-06  0.58143124E-06  0.60018514E-06  0.61472796E-06
  0.62500556E-06  0.63099276E-06  0.63269322E-06  0.63013910E-06  0.62339061E-06
  0.61253528E-06  0.59768714E-06  0.57898569E-06  0.55659475E-06  0.53070106E-06
  0.50151291E-06  0.46925845E-06  0.43418405E-06  0.39655246E-06  0.35664087E-06
  0.31473897E-06  0.27114689E-06  0.22617307E-06  0.18013217E-06  0.13334287E-06
  0.86125768E-07  0.38801155E-07 -0.83130691E-08 -0.54903504E-07 -0.10066330E-06
 -0.14529413E-06 -0.18850811E-06 -0.23002962E-06 -0.26959701E-06 -0.30696422E-06
 -0.34190230E-06 -0.37420072E-06 -0.40366868E-06 -0.43013610E-06 -0.45345465E-06
 -0.47349849E-06 -0.49016490E-06 -0.50337476E-06 -0.51307287E-06 -0.51922805E-06
 -0.52183317E-06 -0.52090494E-06 -0.51648361E-06 -0.50863245E-06 -0.49743710E-06
 -0.48300484E-06 -0.46546362E-06 -0.44496104E-06 -0.42166316E-06 -0.39575324E-06
 -0.36743031E-06 -0.33690774E-06 -0.30441165E-06 -0.27017925E-06 -0.23445723E-06
 -0.19749991E-06 -0.15956754E-06 -0.12092449E-06 -0.81837388E-07 -0.42573379E-07
 -0.33982763E-08  0.35425191E-07  0.73639116E-07  0.11099210E-06  0.14724089E-06
   16.2516435017787      T
 Non local Part
           2           2   1.24648932097939     
   22.6238540006435        21.3051826775345        21.3051826775345     
   20.0484552819131     
 Reciprocal Space Part
  0.00000000E+00 -0.16391972E+00 -0.65194394E+00 -0.14529245E+01 -0.25484696E+01
 -0.39132247E+01 -0.55152634E+01 -0.73165833E+01 -0.92737044E+01 -0.11338363E+02
 -0.13458297E+02 -0.15578106E+02 -0.17640194E+02 -0.19585759E+02 -0.21355840E+02
 -0.22892394E+02 -0.24139388E+02 -0.25043893E+02 -0.25557163E+02 -0.25635668E+02
 -0.25242080E+02 -0.24346174E+02 -0.22925639E+02 -0.20966764E+02 -0.18464996E+02
 -0.15425350E+02 -0.11862643E+02 -0.78015625E+01 -0.32765449E+01  0.16685385E+01
  0.69808834E+01  0.12599446E+02  0.18455816E+02  0.24475264E+02  0.30577940E+02
  0.36680208E+02  0.42696096E+02  0.48538823E+02  0.54122389E+02  0.59363182E+02
  0.64181575E+02  0.68503481E+02  0.72261822E+02  0.75397891E+02  0.77862557E+02
  0.79617313E+02  0.80635101E+02  0.80900935E+02  0.80412267E+02  0.79179115E+02
  0.77223922E+02  0.74581168E+02  0.71296718E+02  0.67426942E+02  0.63037608E+02
  0.58202575E+02  0.53002320E+02  0.47522324E+02  0.41851361E+02  0.36079721E+02
  0.30297416E+02  0.24592398E+02  0.19048843E+02  0.13745538E+02  0.87543900E+01
  0.41391236E+01 -0.45837460E-01 -0.37562576E+01 -0.69587379E+01 -0.96311092E+01
 -0.11762566E+02 -0.13353539E+02 -0.14415318E+02 -0.14969431E+02 -0.15046809E+02
 -0.14686746E+02 -0.13935702E+02 -0.12845969E+02 -0.11474231E+02 -0.98800781E+01
 -0.81244876E+01 -0.62683260E+01 -0.43709059E+01 -0.24886306E+01 -0.67376059E+00
  0.10266703E+01  0.25717660E+01  0.39274882E+01  0.50671714E+01  0.59718273E+01
  0.66302366E+01  0.70388323E+01  0.72013864E+01  0.71285131E+01  0.68370099E+01
  0.63490594E+01  0.56913193E+01  0.48939296E+01  0.39894673E+01  0.30118799E+01
 Real Space Part
  0.00000000E+00  0.43714408E+00  0.17453617E+01  0.39150292E+01  0.69301746E+01
  0.10768578E+02  0.15401912E+02  0.20795921E+02  0.26910639E+02  0.33700644E+02
  0.41115349E+02  0.49099329E+02  0.57592678E+02  0.66531400E+02  0.75847830E+02
  0.85471083E+02  0.95327522E+02  0.10534126E+03  0.11543467E+03  0.12552893E+03
  0.13554454E+03  0.14540194E+03  0.15502199E+03  0.16432664E+03  0.17323941E+03
  0.18168603E+03  0.18959496E+03  0.19689793E+03  0.20353053E+03  0.20943268E+03
  0.21454912E+03  0.21882992E+03  0.22223086E+03  0.22471387E+03  0.22624736E+03
  0.22680658E+03  0.22637382E+03  0.22493871E+03  0.22249833E+03  0.21905734E+03
  0.21462802E+03  0.20923030E+03  0.20289163E+03  0.19564690E+03  0.18753820E+03
  0.17861456E+03  0.16893163E+03  0.15855127E+03  0.14754109E+03  0.13597392E+03
  0.12392723E+03  0.11148248E+03  0.98724416E+02  0.85740308E+02  0.72619177E+02
  0.59450932E+02  0.46325499E+02  0.33331906E+02  0.20557358E+02  0.80862771E+01
 -0.40006571E+01 -0.15627472E+02 -0.26723863E+02 -0.37226142E+02 -0.47078164E+02
 -0.56232221E+02 -0.64649904E+02 -0.72302915E+02 -0.79173820E+02 -0.85256749E+02
 -0.90558031E+02 -0.95097211E+02 -0.98914117E+02 -0.10166375E+03 -0.10262202E+03
 -0.10184558E+03 -0.99436128E+02 -0.95512516E+02 -0.90208543E+02 -0.83672354E+02
 -0.76065820E+02 -0.67563849E+02 -0.58353502E+02 -0.48633193E+02 -0.38611535E+02
 -0.28506394E+02 -0.18543529E+02 -0.89554832E+01  0.19997827E-01  0.81411168E+01
  0.15163767E+02  0.20842901E+02  0.24934194E+02  0.27195727E+02  0.27389887E+02
  0.25278227E+02  0.20650385E+02  0.13434778E+02  0.21180019E+01  0.00000000E+00
 Reciprocal Space Part
  0.00000000E+00  0.17082737E+00  0.67952207E+00  0.15147801E+01  0.26579548E+01
  0.40833456E+01  0.57585977E+01  0.76452107E+01  0.96991497E+01  0.11871554E+02
  0.14109533E+02  0.16357048E+02  0.18555858E+02  0.20646527E+02  0.22569476E+02
  0.24266068E+02  0.25679697E+02  0.26756889E+02  0.27448369E+02  0.27710090E+02
  0.27504208E+02  0.26799966E+02  0.25574493E+02  0.23813467E+02  0.21511662E+02
  0.18673331E+02  0.15312432E+02  0.11452672E+02  0.71273788E+01  0.23791772E+01
 -0.27405187E+01 -0.81721969E+01 -0.13849116E+02 -0.19698336E+02 -0.25641905E+02
 -0.31598163E+02 -0.37483163E+02 -0.43212167E+02 -0.48701191E+02 -0.53868569E+02
 -0.58636510E+02 -0.62932595E+02 -0.66691208E+02 -0.69854844E+02 -0.72375280E+02
 -0.74214572E+02 -0.75345858E+02 -0.75753943E+02 -0.75435656E+02 -0.74399959E+02
 -0.72667809E+02 -0.70271776E+02 -0.67255415E+02 -0.63672407E+02 -0.59585495E+02
 -0.55065223E+02 -0.50188517E+02 -0.45037133E+02 -0.39696016E+02 -0.34251589E+02
 -0.28790034E+02 -0.23395587E+02 -0.18148893E+02 -0.13125458E+02 -0.83942277E+01
 -0.40163406E+01 -0.44058975E-01  0.34800777E+01  0.65238713E+01  0.90658394E+01
  0.11095342E+02  0.12612460E+02  0.13627632E+02  0.14161065E+02  0.14241930E+02
  0.13907382E+02  0.13201407E+02  0.12173557E+02  0.10877577E+02  0.93699899E+01
  0.77086505E+01  0.59513204E+01  0.41542948E+01  0.23711134E+01  0.65138822E+00
 -0.96022733E+00 -0.24249036E+01 -0.37103184E+01 -0.47911462E+01 -0.56493468E+01
 -0.62742514E+01 -0.66624523E+01 -0.68175039E+01 -0.67494512E+01 -0.64742040E+01
 -0.60127786E+01 -0.53904346E+01 -0.46357325E+01 -0.37795421E+01 -0.28540309E+01
 Real Space Part
  0.00000000E+00 -0.40780325E+00 -0.16281956E+01 -0.36521439E+01 -0.64646562E+01
 -0.10044877E+02 -0.14366219E+02 -0.19396531E+02 -0.25098308E+02 -0.31428923E+02
 -0.38340909E+02 -0.45782260E+02 -0.53696775E+02 -0.62024419E+02 -0.70701725E+02
 -0.79662212E+02 -0.88836831E+02 -0.98154434E+02 -0.10754226E+03 -0.11692642E+03
 -0.12623246E+03 -0.13538581E+03 -0.14431240E+03 -0.15293913E+03 -0.16119446E+03
 -0.16900890E+03 -0.17631557E+03 -0.18305068E+03 -0.18915408E+03 -0.19456973E+03
 -0.19924611E+03 -0.20313676E+03 -0.20620058E+03 -0.20840226E+03 -0.20971264E+03
 -0.21010893E+03 -0.20957503E+03 -0.20810171E+03 -0.20568676E+03 -0.20233511E+03
 -0.19805883E+03 -0.19287718E+03 -0.18681651E+03 -0.17991011E+03 -0.17219807E+03
 -0.16372694E+03 -0.15454953E+03 -0.14472441E+03 -0.13431556E+03 -0.12339184E+03
 -0.11202641E+03 -0.10029616E+03 -0.88281032E+02 -0.76063303E+02 -0.63726834E+02
 -0.51356278E+02 -0.39036252E+02 -0.26850473E+02 -0.14880888E+02 -0.32067690E+01
  0.80961903E+01  0.18956783E+02  0.29309194E+02  0.39093890E+02  0.48258494E+02
  0.56758622E+02  0.64558697E+02  0.71632706E+02  0.77964913E+02  0.83550509E+02
  0.88396211E+02  0.92521216E+02  0.95963882E+02  0.98398513E+02  0.99140988E+02
  0.98245871E+02  0.95810237E+02  0.91947326E+02  0.86784411E+02  0.80462247E+02
  0.73134480E+02  0.64966992E+02  0.56137063E+02  0.46832612E+02  0.37251113E+02
  0.27598689E+02  0.18088839E+02  0.89413836E+01  0.38097264E+00 -0.73639983E+01
 -0.14063033E+02 -0.19484826E+02 -0.23398829E+02 -0.25576838E+02 -0.25794788E+02
 -0.23827890E+02 -0.19477938E+02 -0.12677805E+02 -0.19991698E+01  0.00000000E+00
 Non local Part
           0           2   1.24648932097939     
   3.04596258634699        5.98599116038756        5.98599116038756     
   11.7989535037348     
 Reciprocal Space Part
  0.12938314E+02  0.12610436E+02  0.11633047E+02  0.10024748E+02  0.78161056E+01
  0.50490107E+01  0.17758021E+01 -0.19418275E+01 -0.60341134E+01 -0.10424664E+02
 -0.15032033E+02 -0.19771382E+02 -0.24556201E+02 -0.29300044E+02 -0.33918243E+02
 -0.38329556E+02 -0.42457730E+02 -0.46232926E+02 -0.49592992E+02 -0.52484544E+02
 -0.54863848E+02 -0.56697480E+02 -0.57962755E+02 -0.58647913E+02 -0.58752081E+02
 -0.58284992E+02 -0.57266499E+02 -0.55725881E+02 -0.53700963E+02 -0.51237090E+02
 -0.48385966E+02 -0.45204394E+02 -0.41752949E+02 -0.38094616E+02 -0.34293425E+02
 -0.30413111E+02 -0.26515837E+02 -0.22660997E+02 -0.18904127E+02 -0.15295956E+02
 -0.11881593E+02 -0.86998801E+01 -0.57829152E+01 -0.31557469E+01 -0.83624192E+00
  0.11648779E+01  0.28438387E+01  0.42034694E+01  0.52527239E+01  0.60060878E+01
  0.64828903E+01  0.67065428E+01  0.67037261E+01  0.65035499E+01  0.61367052E+01
  0.56346334E+01  0.50287302E+01  0.43496031E+01  0.36263983E+01  0.28862109E+01
  0.21535867E+01  0.14501260E+01  0.79419001E+00  0.20071498E+00 -0.31887118E+00
 -0.75663169E+00 -0.11080113E+01 -0.13716428E+01 -0.15490811E+01 -0.16444763E+01
 -0.16641995E+01 -0.16164356E+01 -0.15107563E+01 -0.13576865E+01 -0.11682795E+01
 -0.95370928E+00 -0.72489438E+00 -0.49215974E+00 -0.26494540E+00 -0.51567067E-01
  0.14096749E+00  0.30708476E+00  0.44271448E+00  0.54530320E+00  0.61377603E+00
  0.64845136E+00  0.65091472E+00  0.62385872E+00  0.57089672E+00  0.49635833E+00
  0.40507472E+00  0.30216174E+00  0.19280841E+00  0.82077554E-01 -0.25275289E-01
 -0.12495959E+00 -0.21328028E+00 -0.28723797E+00 -0.34459750E+00 -0.38392409E+00
 Real Space Part
 -0.14834306E+03 -0.14828779E+03 -0.14812200E+03 -0.14784567E+03 -0.14745878E+03
 -0.14696132E+03 -0.14635329E+03 -0.14563466E+03 -0.14480545E+03 -0.14386570E+03
 -0.14281546E+03 -0.14165483E+03 -0.14038397E+03 -0.13900308E+03 -0.13751245E+03
 -0.13591244E+03 -0.13420353E+03 -0.13238628E+03 -0.13046141E+03 -0.12842974E+03
 -0.12629228E+03 -0.12405019E+03 -0.12170480E+03 -0.11925766E+03 -0.11671051E+03
 -0.11406532E+03 -0.11132429E+03 -0.10848988E+03 -0.10556478E+03 -0.10255199E+03
 -0.99454759E+02 -0.96276624E+02 -0.93021427E+02 -0.89693308E+02 -0.86296711E+02
 -0.82836393E+02 -0.79317420E+02 -0.75745174E+02 -0.72125345E+02 -0.68463937E+02
 -0.64767257E+02 -0.61041914E+02 -0.57294808E+02 -0.53533125E+02 -0.49764324E+02
 -0.45996124E+02 -0.42236492E+02 -0.38493628E+02 -0.34775942E+02 -0.31092045E+02
 -0.27450719E+02 -0.23860903E+02 -0.20331663E+02 -0.16872173E+02 -0.13491689E+02
 -0.10199518E+02 -0.70049935E+01 -0.39174472E+01 -0.94617780E+00  0.18995786E+01
  0.46106791E+01  0.71781058E+01  0.95929966E+01  0.11846678E+02  0.13930695E+02
  0.15836847E+02  0.17557213E+02  0.19084188E+02  0.20410513E+02  0.21529302E+02
  0.22434072E+02  0.23118724E+02  0.23576891E+02  0.23843884E+02  0.23999503E+02
  0.24047514E+02  0.23988982E+02  0.23825059E+02  0.23557167E+02  0.23186985E+02
  0.22716447E+02  0.22147718E+02  0.21483189E+02  0.20725458E+02  0.19877317E+02
  0.18941734E+02  0.17921849E+02  0.16820947E+02  0.15642468E+02  0.14389965E+02
  0.13067124E+02  0.11677733E+02  0.10225677E+02  0.87149511E+01  0.71496721E+01
  0.55331720E+01  0.38716326E+01  0.21886556E+01  0.31346372E+00  0.00000000E+00
 Reciprocal Space Part
  0.22602593E+01  0.24003552E+01  0.28178215E+01  0.35042540E+01  0.44458462E+01
  0.56236843E+01  0.70141511E+01  0.85894291E+01  0.10318090E+02  0.12165760E+02
  0.14095841E+02  0.16070274E+02  0.18050331E+02  0.19997405E+02  0.21873798E+02
  0.23643473E+02  0.25272768E+02  0.26731038E+02  0.27991237E+02  0.29030401E+02
  0.29830043E+02  0.30376447E+02  0.30660841E+02  0.30679481E+02  0.30433607E+02
  0.29929302E+02  0.29177253E+02  0.28192413E+02  0.26993582E+02  0.25602920E+02
  0.24045398E+02  0.22348207E+02  0.20540133E+02  0.18650925E+02  0.16710659E+02
  0.14749114E+02  0.12795182E+02  0.10876320E+02  0.90180480E+01  0.72435169E+01
  0.55731423E+01  0.40243157E+01  0.26111953E+01  0.13445788E+01  0.23185684E+00
 -0.72295409E+00 -0.15191045E+01 -0.21589357E+01 -0.26476418E+01 -0.29929794E+01
 -0.32049335E+01 -0.32953506E+01 -0.32775489E+01 -0.31659169E+01 -0.29755111E+01
 -0.27216621E+01 -0.24195990E+01 -0.20841007E+01 -0.17291810E+01 -0.13678136E+01
 -0.10117027E+01 -0.67110055E+00 -0.35467639E+00 -0.69434522E-01  0.17931743E+00
  0.38795339E+00  0.55446982E+00  0.67838746E+00  0.76061894E+00  0.80330826E+00
  0.80964846E+00  0.78368408E+00  0.73010507E+00  0.65403864E+00  0.56084520E+00
  0.45592409E+00  0.34453414E+00  0.23163328E+00  0.12174084E+00  0.18824934E-01
 -0.73783297E-01 -0.15344787E+00 -0.21825874E+00 -0.26703611E+00 -0.29931005E+00
 -0.31527779E+00 -0.31574169E+00 -0.30203121E+00 -0.27591261E+00 -0.23949013E+00
 -0.19510270E+00 -0.14521979E+00 -0.92340106E-01 -0.38896278E-01  0.12831427E-01
  0.60790125E-01  0.10321610E+00  0.13868209E+00  0.16612927E+00  0.18488380E+00
 Real Space Part
  0.76594585E+02  0.76567014E+02  0.76484300E+02  0.76346435E+02  0.76153412E+02
  0.75905220E+02  0.75601849E+02  0.75243293E+02  0.74829551E+02  0.74360632E+02
  0.73836560E+02  0.73257377E+02  0.72623151E+02  0.71933975E+02  0.71189980E+02
  0.70391339E+02  0.69538269E+02  0.68631044E+02  0.67669999E+02  0.66655534E+02
  0.65588127E+02  0.64468337E+02  0.63296812E+02  0.62074293E+02  0.60801628E+02
  0.59479771E+02  0.58109792E+02  0.56692884E+02  0.55230364E+02  0.53723685E+02
  0.52174433E+02  0.50584340E+02  0.48955279E+02  0.47289275E+02  0.45588501E+02
  0.43855284E+02  0.42092106E+02  0.40301602E+02  0.38486562E+02  0.36649928E+02
  0.34794795E+02  0.32924405E+02  0.31042146E+02  0.29151546E+02  0.27256269E+02
  0.25360109E+02  0.23466982E+02  0.21580919E+02  0.19706059E+02  0.17846637E+02
  0.16006978E+02  0.14191483E+02  0.12404617E+02  0.10650902E+02  0.89348989E+01
  0.72611986E+01  0.56344054E+01  0.40591246E+01  0.25399473E+01  0.10814360E+01
 -0.31189081E+00 -0.16355739E+01 -0.28852288E+01 -0.40565616E+01 -0.51453841E+01
 -0.61476301E+01 -0.70593702E+01 -0.78768278E+01 -0.85963936E+01 -0.92146409E+01
 -0.97283387E+01 -0.10134444E+02 -0.10429800E+02 -0.10630646E+02 -0.10774101E+02
 -0.10862057E+02 -0.10895150E+02 -0.10874058E+02 -0.10799582E+02 -0.10672640E+02
 -0.10494272E+02 -0.10265623E+02 -0.99879442E+01 -0.96625830E+01 -0.92909777E+01
 -0.88746497E+01 -0.84152001E+01 -0.79142982E+01 -0.73736861E+01 -0.67951598E+01
 -0.61805755E+01 -0.55318396E+01 -0.48509032E+01 -0.41397680E+01 -0.34004943E+01
 -0.26347662E+01 -0.18456290E+01 -0.10444538E+01 -0.14969649E+00  0.00000000E+00
 Non local Part
           1           2   1.24648932097939     
   6.50937430423562        8.25207525653883        8.25207525653883     
   10.2798000734620     
 Reciprocal Space Part
  0.00000000E+00  0.70834151E+00  0.13913558E+01  0.20243201E+01  0.25837056E+01
  0.30477384E+01  0.33969177E+01  0.36144794E+01  0.36867927E+01  0.36036826E+01
  0.33586688E+01  0.29491157E+01  0.23762920E+01  0.16453373E+01  0.76513750E+00
 -0.25188698E+00 -0.13900744E+01 -0.26308890E+01 -0.39533529E+01 -0.53345309E+01
 -0.67500565E+01 -0.81746865E+01 -0.95828694E+01 -0.10949315E+02 -0.12249549E+02
 -0.13460447E+02 -0.14560720E+02 -0.15531364E+02 -0.16356034E+02 -0.17021366E+02
 -0.17517215E+02 -0.17836819E+02 -0.17976879E+02 -0.17937566E+02 -0.17722440E+02
 -0.17338296E+02 -0.16794945E+02 -0.16104929E+02 -0.15283174E+02 -0.14346615E+02
 -0.13313767E+02 -0.12204290E+02 -0.11038531E+02 -0.98370688E+01 -0.86202684E+01
 -0.74078591E+01 -0.62185390E+01 -0.50696206E+01 -0.39767220E+01 -0.29535098E+01
 -0.20114987E+01 -0.11599100E+01 -0.40559035E+00  0.24701037E+00  0.79580268E+00
  0.12409673E+01  0.15848150E+01  0.18316030E+01  0.19873135E+01  0.20594028E+01
  0.20565282E+01  0.19882613E+01  0.18647949E+01  0.16966524E+01  0.14944065E+01
  0.12684141E+01  0.10285741E+01  0.78411260E+00  0.54339970E+00  0.31380163E+00
  0.10156962E+00 -0.88233502E-01 -0.25176905E+00 -0.38642208E+00 -0.49076686E+00
 -0.56450145E+00 -0.60835517E+00 -0.62397313E+00 -0.61378296E+00 -0.58084839E+00
 -0.52871515E+00 -0.46125399E+00 -0.38250594E+00 -0.29653411E+00 -0.20728625E+00
 -0.11847145E+00 -0.33454003E-01  0.44833606E-01  0.11395691E+00  0.17202434E+00
  0.21771061E+00  0.25025942E+00  0.26946662E+00  0.27564575E+00  0.26957824E+00
  0.25245090E+00  0.22578361E+00  0.19135028E+00  0.15109618E+00  0.10705468E+00
 Real Space Part
  0.00000000E+00 -0.18861405E+01 -0.37672356E+01 -0.56382525E+01 -0.74941846E+01
 -0.93300639E+01 -0.11140974E+02 -0.12922063E+02 -0.14668555E+02 -0.16375767E+02
 -0.18039114E+02 -0.19654129E+02 -0.21216472E+02 -0.22721941E+02 -0.24166487E+02
 -0.25546222E+02 -0.26857434E+02 -0.28096599E+02 -0.29260389E+02 -0.30345683E+02
 -0.31349581E+02 -0.32269410E+02 -0.33102738E+02 -0.33847379E+02 -0.34501405E+02
 -0.35063154E+02 -0.35531237E+02 -0.35904545E+02 -0.36182257E+02 -0.36363846E+02
 -0.36449085E+02 -0.36438048E+02 -0.36331119E+02 -0.36128992E+02 -0.35832676E+02
 -0.35443492E+02 -0.34963078E+02 -0.34393388E+02 -0.33736690E+02 -0.32995561E+02
 -0.32172889E+02 -0.31271866E+02 -0.30295984E+02 -0.29249025E+02 -0.28135059E+02
 -0.26958433E+02 -0.25723761E+02 -0.24435914E+02 -0.23100011E+02 -0.21721402E+02
 -0.20305657E+02 -0.18858553E+02 -0.17386055E+02 -0.15894303E+02 -0.14389593E+02
 -0.12878359E+02 -0.11367154E+02 -0.98626314E+01 -0.83715245E+01 -0.69006252E+01
 -0.54567628E+01 -0.40467825E+01 -0.26775225E+01 -0.13557922E+01 -0.88349078E-01
  0.11181243E+01  0.22570430E+01  0.33219431E+01  0.43065041E+01  0.52045716E+01
  0.60101795E+01  0.67175592E+01  0.73209862E+01  0.78260776E+01  0.82533871E+01
  0.86053274E+01  0.88835767E+01  0.90898014E+01  0.92257087E+01  0.92930508E+01
  0.92936302E+01  0.92292969E+01  0.91019519E+01  0.89135443E+01  0.86660706E+01
  0.83615718E+01  0.80021325E+01  0.75898747E+01  0.71269629E+01  0.66155893E+01
  0.60579815E+01  0.54563939E+01  0.48131044E+01  0.41304215E+01  0.34106936E+01
  0.26558658E+01  0.18692556E+01  0.10626671E+01  0.15310665E+00  0.00000000E+00
 Reciprocal Space Part
  0.00000000E+00 -0.54817583E-01 -0.97269063E-01 -0.11532139E+00 -0.97599172E-01
 -0.33692599E-01  0.85559108E-01  0.26781587E+00  0.51902291E+00  0.84324020E+00
  0.12425195E+01  0.17168318E+01  0.22640472E+01  0.28799675E+01  0.35584096E+01
  0.42913395E+01  0.50690510E+01  0.58803859E+01  0.67129896E+01  0.75535957E+01
  0.83883315E+01  0.92030387E+01  0.99835982E+01  0.10716255E+02  0.11387929E+02
  0.11986515E+02  0.12501148E+02  0.12922449E+02  0.13242722E+02  0.13456120E+02
  0.13558760E+02  0.13548796E+02  0.13426439E+02  0.13193932E+02  0.12855483E+02
  0.12417145E+02  0.11886664E+02  0.11273290E+02  0.10587552E+02  0.98410181E+01
  0.90460292E+01  0.82154269E+01  0.73622753E+01  0.64995854E+01  0.56400489E+01
  0.47957872E+01  0.39781218E+01  0.31973697E+01  0.24626695E+01  0.17818403E+01
  0.11612764E+01  0.60587885E+00  0.11902366E+00 -0.29743271E+00 -0.64311328E+00
 -0.91904772E+00 -0.11275700E+01 -0.12721904E+01 -0.13574459E+01 -0.13887342E+01
 -0.13721354E+01 -0.13142276E+01 -0.12219003E+01 -0.11021711E+01 -0.96200996E+00
 -0.80817547E+00 -0.64706646E+00 -0.48459212E+00 -0.32606309E+00 -0.17610522E+00
 -0.38597021E-01  0.83368890E-01  0.18750063E+00  0.27229925E+00  0.33702980E+00
  0.38167335E+00  0.40686259E+00  0.41380362E+00  0.40418730E+00  0.38009308E+00
  0.34388890E+00  0.29812995E+00  0.24545978E+00  0.18851618E+00  0.12984450E+00
  0.71820660E-01  0.16585269E-01 -0.34009570E-01 -0.78440122E-01 -0.11553713E+00
 -0.14449826E+00 -0.16488743E+00 -0.17662180E+00 -0.17994786E+00 -0.17540787E+00
 -0.16379860E+00 -0.14612406E+00 -0.12354433E+00 -0.97322398E-01 -0.68770841E-01
 Real Space Part
  0.00000000E+00  0.13738967E+01  0.27442795E+01  0.41076430E+01  0.54604994E+01
  0.67993872E+01  0.81208797E+01  0.94215937E+01  0.10698198E+02  0.11947423E+02
  0.13166068E+02  0.14351008E+02  0.15499208E+02  0.16607725E+02  0.17673718E+02
  0.18694459E+02  0.19667336E+02  0.20589865E+02  0.21459696E+02  0.22274620E+02
  0.23032575E+02  0.23731658E+02  0.24370126E+02  0.24946406E+02  0.25459097E+02
  0.25906983E+02  0.26289032E+02  0.26604404E+02  0.26852454E+02  0.27032739E+02
  0.27145020E+02  0.27189266E+02  0.27165655E+02  0.27074579E+02  0.26916644E+02
  0.26692675E+02  0.26403709E+02  0.26051002E+02  0.25636027E+02  0.25160469E+02
  0.24626227E+02  0.24035411E+02  0.23390336E+02  0.22693521E+02  0.21947681E+02
  0.21155726E+02  0.20320750E+02  0.19446027E+02  0.18535004E+02  0.17591288E+02
  0.16618644E+02  0.15620979E+02  0.14602336E+02  0.13566879E+02  0.12518887E+02
  0.11462736E+02  0.10402890E+02  0.93438862E+01  0.82903215E+01  0.72468395E+01
  0.62181147E+01  0.52088382E+01  0.42237028E+01  0.32673871E+01  0.23445408E+01
  0.14597683E+01  0.61761340E+00 -0.17745630E+00 -0.92106524E+00 -0.16089453E+01
 -0.22369508E+01 -0.28010670E+01 -0.32973308E+01 -0.37279793E+01 -0.41039557E+01
 -0.44267956E+01 -0.46976446E+01 -0.49176449E+01 -0.50879652E+01 -0.52098033E+01
 -0.52843898E+01 -0.53129872E+01 -0.52968920E+01 -0.52374334E+01 -0.51359731E+01
 -0.49939034E+01 -0.48126472E+01 -0.45936537E+01 -0.43384017E+01 -0.40483905E+01
 -0.37251444E+01 -0.33702073E+01 -0.29851406E+01 -0.25715274E+01 -0.21309784E+01
 -0.16648510E+01 -0.11753740E+01 -0.67015325E+00 -0.96750594E-01  0.00000000E+00
 PAW radial sets
         367   1.01033374906443     
(5E20.12)                                
 augmentation charges (non sperical)
  0.633041243590E+00  0.615618322824E+00 -0.112392512371E+00 -0.211315394225E+00 -0.214057361140E+00
 -0.243548928350E+00  0.615618322824E+00  0.598631638708E+00 -0.111817925881E+00 -0.210465192423E+00
 -0.211081169252E+00 -0.240793085590E+00 -0.112392512371E+00 -0.111817925881E+00 -0.482319591838E-01
 -0.104503860544E+00 -0.304314993923E-01 -0.627214136277E-01 -0.211315394225E+00 -0.210465192423E+00
 -0.104503860544E+00 -0.225907969623E+00 -0.696334229132E-01 -0.137909453747E+00 -0.214057361140E+00
 -0.211081169252E+00 -0.304314993923E-01 -0.696334229132E-01  0.411473912427E-02 -0.226774498593E-01
 -0.243548928350E+00 -0.240793085590E+00 -0.627214136277E-01 -0.137909453747E+00 -0.226774498593E-01
 -0.680151541276E-01
 uccopancies in atom
  0.139999999774E+01  0.000000000000E+00  0.000000000000E+00  0.000000000000E+00  0.000000000000E+00
  0.000000000000E+00  0.000000000000E+00  0.000000000000E+00  0.000000000000E+00  0.000000000000E+00
  0.000000000000E+00  0.000000000000E+00  0.000000000000E+00  0.000000000000E+00  0.100000000225E+01
  0.000000000000E+00  0.000000000000E+00  0.000000000000E+00  0.000000000000E+00  0.000000000000E+00
  0.000000000000E+00  0.000000000000E+00  0.000000000000E+00  0.000000000000E+00  0.000000000000E+00
  0.000000000000E+00  0.000000000000E+00  0.000000000000E+00  0.000000000000E+00  0.000000000000E+00
  0.000000000000E+00  0.000000000000E+00  0.000000000000E+00  0.000000000000E+00  0.000000000000E+00
  0.000000000000E+00
 grid
  0.444792170761E-04  0.458690812442E-04  0.473023751876E-04  0.487804559781E-04  0.503047230926E-04
  0.518766197380E-04  0.534976342178E-04  0.551693013416E-04  0.568932038775E-04  0.586709740514E-04
  0.605042950921E-04  0.623949028251E-04  0.643445873161E-04  0.663551945659E-04  0.684286282582E-04
  0.705668515620E-04  0.727718889904E-04  0.750458283175E-04  0.773908225552E-04  0.798090919916E-04
  0.823029262930E-04  0.848746866723E-04  0.875268081245E-04  0.902618017317E-04  0.930822570414E-04
  0.959908445177E-04  0.989903180702E-04  0.102083517661E-03  0.105273371995E-03  0.108562901290E-03
  0.111955220139E-03  0.115453540459E-03  0.119061174529E-03  0.122781538132E-03  0.126618153782E-03
  0.130574654066E-03  0.134654785077E-03  0.138862409966E-03  0.143201512599E-03  0.147676201325E-03
  0.152290712869E-03  0.157049416346E-03  0.161956817392E-03  0.167017562433E-03  0.172236443086E-03
  0.177618400693E-03  0.183168531000E-03  0.188892088982E-03  0.194794493821E-03  0.200881334033E-03
  0.207158372762E-03  0.213631553235E-03  0.220307004390E-03  0.227191046680E-03  0.234290198055E-03
  0.241611180136E-03  0.249160924578E-03  0.256946579630E-03  0.264975516909E-03  0.273255338376E-03
  0.281793883533E-03  0.290599236847E-03  0.299679735406E-03  0.309043976810E-03  0.318700827311E-03
  0.328659430212E-03  0.338929214520E-03  0.349519903874E-03  0.360441525754E-03  0.371704420972E-03
  0.383319253467E-03  0.395297020396E-03  0.407649062552E-03  0.420387075099E-03  0.433523118644E-03
  0.447069630661E-03  0.461039437262E-03  0.475445765341E-03  0.490302255103E-03  0.505622972973E-03
  0.521422424916E-03  0.537715570175E-03  0.554517835429E-03  0.571845129403E-03  0.589713857930E-03
  0.608140939485E-03  0.627143821201E-03  0.646740495392E-03  0.666949516586E-03  0.687790019094E-03
  0.709281735125E-03  0.731445013472E-03  0.754300838775E-03  0.777870851394E-03  0.802177367893E-03
  0.827243402175E-03  0.853092687269E-03  0.879749697802E-03  0.907239673170E-03  0.935588641441E-03
  0.964823443991E-03  0.994971760923E-03  0.102606213728E-02  0.105812401005E-02  0.109118773606E-02
  0.112528462074E-02  0.116044694769E-02  0.119670800931E-02  0.123410213833E-02  0.127266474025E-02
  0.131243232692E-02  0.135344255112E-02  0.139573424213E-02  0.143934744261E-02  0.148432344640E-02
  0.153070483770E-02  0.157853553135E-02  0.162786081442E-02  0.167872738909E-02  0.173118341686E-02
  0.178527856416E-02  0.184106404937E-02  0.189859269132E-02  0.195791895929E-02  0.201909902459E-02
  0.208219081376E-02  0.214725406337E-02  0.221435037663E-02  0.228354328168E-02  0.235489829178E-02
  0.242848296728E-02  0.250436697965E-02  0.258262217742E-02  0.266332265418E-02  0.274654481879E-02
  0.283236746767E-02  0.292087185944E-02  0.301214179187E-02  0.310626368117E-02  0.320332664385E-02
  0.330342258109E-02  0.340664626575E-02  0.351309543210E-02  0.362287086839E-02  0.373607651220E-02
  0.385281954895E-02  0.397321051329E-02  0.409736339384E-02  0.422539574106E-02  0.435742877856E-02
  0.449358751791E-02  0.463400087695E-02  0.477880180190E-02  0.492812739321E-02  0.508211903537E-02
  0.524092253078E-02  0.540468823783E-02  0.557357121318E-02  0.574773135867E-02  0.592733357266E-02
  0.611254790615E-02  0.630354972382E-02  0.650051987007E-02  0.670364484023E-02  0.691311695713E-02
  0.712913455321E-02  0.735190215831E-02  0.758163069331E-02  0.781853766985E-02  0.806284739624E-02
  0.831479118989E-02  0.857460759628E-02  0.884254261485E-02  0.911884993190E-02  0.940379116081E-02
  0.969763608969E-02  0.100006629369E-01  0.103131586143E-01  0.106354189993E-01  0.109677492144E-01
  0.113104639167E-01  0.116638875953E-01  0.120283548790E-01  0.124042108528E-01  0.127918113847E-01
  0.131915234628E-01  0.136037255425E-01  0.140288079052E-01  0.144671730273E-01  0.149192359620E-01
  0.153854247315E-01  0.158661807329E-01  0.163619591556E-01  0.168732294127E-01  0.174004755852E-01
  0.179441968805E-01  0.185049081050E-01  0.190831401513E-01  0.196794405013E-01  0.202943737442E-01
  0.209285221114E-01  0.215824860272E-01  0.222568846781E-01  0.229523565982E-01  0.236695602746E-01
  0.244091747701E-01  0.251719003668E-01  0.259584592287E-01  0.267695960857E-01  0.276060789386E-01
  0.284686997862E-01  0.293582753756E-01  0.302756479748E-01  0.312216861709E-01  0.321972856919E-01
  0.332033702553E-01  0.342408924423E-01  0.353108345999E-01  0.364142097711E-01  0.375520626538E-01
  0.387254705901E-01  0.399355445865E-01  0.411834303656E-01  0.424703094508E-01  0.437974002854E-01
  0.451659593859E-01  0.465772825317E-01  0.480327059922E-01  0.495336077918E-01  0.510814090147E-01
  0.526775751505E-01  0.543236174816E-01  0.560210945143E-01  0.577716134541E-01  0.595768317279E-01
  0.614384585530E-01  0.633582565552E-01  0.653380434383E-01  0.673796937046E-01  0.694851404298E-01
  0.716563770937E-01  0.738954594671E-01  0.762045075584E-01  0.785857076214E-01  0.810413142243E-01
  0.835736523853E-01  0.861851197734E-01  0.888781889790E-01  0.916554098543E-01  0.945194119286E-01
  0.974729068968E-01  0.100518691188E+00  0.103659648612E+00  0.106898753092E+00  0.110239071477E+00
  0.113683766447E+00  0.117236099511E+00  0.120899434089E+00  0.124677238700E+00  0.128573090247E+00
  0.132590677400E+00  0.136733804093E+00  0.141006393122E+00  0.145412489860E+00  0.149956266089E+00
  0.154642023949E+00  0.159474200010E+00  0.164457369474E+00  0.169596250507E+00  0.174895708706E+00
  0.180360761705E+00  0.185996583927E+00  0.191808511483E+00  0.197802047223E+00  0.203982865949E+00
  0.210356819784E+00  0.216929943718E+00  0.223708461317E+00  0.230698790620E+00  0.237907550211E+00
  0.245341565490E+00  0.253007875134E+00  0.260913737759E+00  0.269066638797E+00  0.277474297579E+00
  0.286144674648E+00  0.295085979291E+00  0.304306677318E+00  0.313815499071E+00  0.323621447696E+00
  0.333733807664E+00  0.344162153563E+00  0.354916359160E+00  0.366006606756E+00  0.377443396822E+00
  0.389237557943E+00  0.401400257069E+00  0.413943010089E+00  0.426877692738E+00  0.440216551834E+00
  0.453972216880E+00  0.468157712017E+00  0.482786468360E+00  0.497872336712E+00  0.513429600678E+00
  0.529472990191E+00  0.546017695458E+00  0.563079381341E+00  0.580674202188E+00  0.598818817134E+00
  0.617530405867E+00  0.636826684899E+00  0.656725924337E+00  0.677246965184E+00  0.698409237178E+00
  0.720232777186E+00  0.742738248179E+00  0.765946958792E+00  0.789880883502E+00  0.814562683434E+00
  0.840015727817E+00  0.866264116108E+00  0.893332700813E+00  0.921247111018E+00  0.950033776649E+00
  0.979719953507E+00  0.101033374906E+01  0.104190414908E+01  0.107446104506E+01  0.110803526252E+01
  0.114265859021E+01  0.117836381020E+01  0.121518472892E+01  0.125315620916E+01  0.129231420309E+01
  0.133269578628E+01  0.137433919285E+01  0.141728385160E+01  0.146157042341E+01  0.150724083971E+01
  0.155433834218E+01  0.160290752367E+01  0.165299437048E+01  0.170464630585E+01  0.175791223487E+01
  0.181284259080E+01  0.186948938283E+01  0.192790624528E+01  0.198814848842E+01  0.205027315082E+01
  0.211433905338E+01  0.218040685499E+01  0.224853910998E+01  0.231880032735E+01  0.239125703185E+01
  0.246597782694E+01  0.254303345980E+01  0.262249688826E+01  0.270444334990E+01  0.278895043329E+01
  0.287609815145E+01  0.296596901760E+01  0.305864812331E+01  0.315422321902E+01  0.325278479718E+01
  0.335442617788E+01  0.345924359724E+01
 aepotential
  0.147087735602E+05  0.148256473202E+05  0.149199214585E+05  0.149909154093E+05  0.150380508384E+05
  0.150609775440E+05  0.150594510010E+05  0.150334367317E+05  0.149830401064E+05  0.149085566871E+05
  0.148104357625E+05  0.146893004185E+05  0.145459156088E+05  0.143811988682E+05  0.141961980628E+05
  0.139920764259E+05  0.137701041804E+05  0.135316392339E+05  0.132781081971E+05  0.130109942765E+05
  0.127318122963E+05  0.124421007500E+05  0.121433987872E+05  0.118372311531E+05  0.115250968812E+05
  0.112084519066E+05  0.108887000697E+05  0.105671809561E+05  0.102451621191E+05  0.992383103763E+04
  0.960429048640E+04  0.928755391544E+04  0.897454337128E+04  0.866608851659E+04  0.836292659062E+04
  0.806570434572E+04  0.777497982116E+04  0.749122653338E+04  0.721483655759E+04  0.694612578511E+04
  0.668533860066E+04  0.643265330549E+04  0.618818751004E+04  0.595200372665E+04  0.572411485156E+04
  0.550448957729E+04  0.529305762204E+04  0.508971473326E+04  0.489432742421E+04  0.470673740540E+04
  0.452676570849E+04  0.435421646088E+04  0.418888036110E+04  0.403053773785E+04  0.387896143945E+04
  0.373391920751E+04  0.359517593279E+04  0.346249556594E+04  0.333564266670E+04  0.321438395821E+04
  0.309848935213E+04  0.298773307467E+04  0.288189438998E+04  0.278075825819E+04  0.268411586319E+04
  0.259176498646E+04  0.250351027828E+04  0.241916343396E+04  0.233854330759E+04  0.226147591246E+04
  0.218779441962E+04  0.211733907728E+04  0.204995707621E+04  0.198550242520E+04  0.192383580031E+04
  0.186482424171E+04  0.180834117360E+04  0.175426577103E+04  0.170248338580E+04  0.165288448878E+04
  0.160536536407E+04  0.155982693661E+04  0.151617535066E+04  0.147432125002E+04  0.143417971754E+04
  0.139567009606E+04  0.135871574828E+04  0.132324384812E+04  0.128918513722E+04  0.125647393614E+04
  0.122504767121E+04  0.119484700034E+04  0.116581545281E+04  0.113789933276E+04  0.111104763485E+04
  0.108521181114E+04  0.106034569154E+04  0.103640535652E+04  0.101334899826E+04  0.991136819310E+03
  0.969730946391E+03  0.949095276314E+03  0.929195437958E+03  0.909998666715E+03  0.891473727740E+03
  0.873590839512E+03  0.856321592812E+03  0.839638874744E+03  0.823516811661E+03  0.807930688743E+03
  0.792856903048E+03  0.778272897307E+03  0.764157108668E+03  0.750488916984E+03  0.737248587674E+03
  0.724417247290E+03  0.711976807401E+03  0.699909952368E+03  0.688200086684E+03  0.676831294724E+03
  0.665788325058E+03  0.655056519322E+03  0.644621832186E+03  0.634470752826E+03  0.624590310262E+03
  0.614968027441E+03  0.605591913383E+03  0.596450415396E+03  0.587532423440E+03  0.578827230873E+03
  0.570324517176E+03  0.562014334987E+03  0.553887084509E+03  0.545933504846E+03  0.538144645581E+03
  0.530511866346E+03  0.523026808554E+03  0.515681392723E+03  0.508467797254E+03  0.501378451718E+03
  0.494406022603E+03  0.487543402101E+03  0.480783701274E+03  0.474120235929E+03  0.467546520864E+03
  0.461056259471E+03  0.454643337268E+03  0.448301813045E+03  0.442025913306E+03  0.435810024252E+03
  0.429648687483E+03  0.423536593010E+03  0.417468575402E+03  0.411439608169E+03  0.405444800090E+03
  0.399479391398E+03  0.393538749927E+03  0.387618368977E+03  0.381713863957E+03  0.375820970120E+03
  0.369935542746E+03  0.364053551645E+03  0.358171085039E+03  0.352284344973E+03  0.346389650054E+03
  0.340483433441E+03  0.334562244441E+03  0.328622750369E+03  0.322661735236E+03  0.316676105855E+03
  0.310662889612E+03  0.304619240693E+03  0.298542441580E+03  0.292429907098E+03  0.286279189307E+03
  0.280087981429E+03  0.273854124028E+03  0.267575610059E+03  0.261250592781E+03  0.254877392221E+03
  0.248454503416E+03  0.241980605733E+03  0.235454572448E+03  0.228875481866E+03  0.222242628679E+03
  0.215555537814E+03  0.208813978130E+03  0.202017978567E+03  0.195167845217E+03  0.188264180224E+03
  0.181307902644E+03  0.174300270438E+03  0.167242905386E+03  0.160137818975E+03  0.152987440999E+03
  0.145794649181E+03  0.138562800856E+03  0.131295765349E+03  0.123997956738E+03  0.116674365753E+03
  0.109330589671E+03  0.101972857770E+03  0.946080502631E+02  0.872437070703E+02  0.798880228490E+02
  0.725498230296E+02  0.652385160167E+02  0.579640153248E+02  0.507366263183E+02  0.435668924908E+02
  0.364653991435E+02  0.294425358182E+02  0.225082261906E+02  0.156716440419E+02  0.894094821849E+01
  0.232308825502E+01 -0.417624632289E+01 -0.105524374802E+02 -0.168014003137E+02 -0.229185860500E+02
 -0.288974542275E+02 -0.347274319109E+02 -0.403915347219E+02 -0.458640520606E+02 -0.511089104244E+02
 -0.560795418617E+02 -0.607209726000E+02 -0.649745430219E+02 -0.687849816436E+02 -0.721087880504E+02
 -0.749223002467E+02 -0.772277107359E+02 -0.790556857527E+02 -0.804639133821E+02 -0.815316327985E+02
 -0.823509290377E+02 -0.830163866795E+02 -0.836153448691E+02 -0.842209727972E+02 -0.848893651282E+02
 -0.856603381724E+02 -0.865604583988E+02 -0.876066238709E+02 -0.888090659898E+02 -0.901733820967E+02
 -0.917017385501E+02 -0.933935681482E+02 -0.952460432667E+02 -0.972544808809E+02 -0.994127237104E+02
 -0.101713488514E+03 -0.104148650885E+03 -0.106709448916E+03 -0.109386599001E+03 -0.112170326583E+03
 -0.115050324641E+03 -0.118015649749E+03 -0.121054568125E+03 -0.124154363199E+03 -0.127301118429E+03
 -0.130479495820E+03 -0.133672542203E+03 -0.136861573217E+03 -0.140026207204E+03 -0.143144647169E+03
 -0.146194325105E+03 -0.149153018630E+03 -0.152000493745E+03 -0.154720583998E+03 -0.157303332424E+03
 -0.159746346201E+03 -0.162053858663E+03 -0.164231368739E+03 -0.166273895068E+03 -0.168148139951E+03
 -0.169774501167E+03 -0.171022198093E+03 -0.171733216305E+03 -0.171780869624E+03 -0.171144893937E+03
 -0.169956079769E+03 -0.168457705995E+03 -0.166890767987E+03 -0.165394667318E+03 -0.163997199009E+03
 -0.162666833864E+03 -0.161363234711E+03 -0.160060064320E+03 -0.158747431555E+03 -0.157426391341E+03
 -0.156102536683E+03 -0.154781342120E+03 -0.153465769111E+03 -0.152155690054E+03 -0.150848378151E+03
 -0.149539402317E+03 -0.148223500936E+03 -0.146895250066E+03 -0.145549496584E+03 -0.144181595385E+03
 -0.142787507198E+03 -0.141363815850E+03 -0.139907694567E+03 -0.138416856060E+03 -0.136889488791E+03
 -0.135324201211E+03 -0.133719966855E+03 -0.132076076794E+03 -0.130392112199E+03 -0.128667912533E+03
 -0.126903568224E+03 -0.125099423070E+03 -0.123256085593E+03 -0.121374459973E+03 -0.119455765498E+03
 -0.117501579961E+03 -0.115513858550E+03 -0.113494946093E+03 -0.111447566881E+03 -0.109374789103E+03
 -0.107279964206E+03 -0.105166646367E+03 -0.103038502438E+03 -0.100899227323E+03 -0.987524788620E+02
 -0.966018455970E+02 -0.944508508046E+02 -0.923029872270E+02 -0.901617664685E+02 -0.880307592427E+02
 -0.859136066830E+02 -0.838139890455E+02 -0.817355541421E+02 -0.796818198111E+02 -0.776560712068E+02
 -0.756612750213E+02 -0.737000182325E+02 -0.717744844923E+02 -0.698864524871E+02 -0.680373180214E+02
 -0.662281207152E+02 -0.644595734288E+02 -0.627320838339E+02 -0.610457683792E+02 -0.594004585810E+02
 -0.577957037615E+02 -0.562307774144E+02 -0.547046932278E+02 -0.532162381133E+02 -0.517640252729E+02
 -0.503465668231E+02 -0.489623608993E+02 -0.476099771031E+02 -0.462881568334E+02 -0.449958685362E+02
 -0.437323642199E+02 -0.424971997046E+02 -0.412902299563E+02 -0.401115794979E+02 -0.389615912505E+02
 -0.378407579128E+02 -0.367496406550E+02 -0.356887808675E+02 -0.346586119620E+02 -0.336593794630E+02
 -0.326910780740E+02 -0.317534133258E+02
 core charge-density
  0.709124054769E-03  0.753185387360E-03  0.799981009352E-03  0.849680267092E-03  0.902462963737E-03
  0.958520001952E-03  0.101805406589E-02  0.108128034473E-02  0.114842730032E-02  0.121973748159E-02
  0.129546838855E-02  0.137589338880E-02  0.146130268976E-02  0.155200436997E-02  0.164832547292E-02
  0.175061316722E-02  0.185923597708E-02  0.197458508718E-02  0.209707572647E-02  0.222714863561E-02
  0.236527162290E-02  0.251194121399E-02  0.266768440094E-02  0.283306049655E-02  0.300866309999E-02
  0.319512218045E-02  0.339310628563E-02  0.360332488250E-02  0.382653083786E-02  0.406352304710E-02
  0.431514921964E-02  0.458230883013E-02  0.486595624508E-02  0.516710403511E-02  0.548682648334E-02
  0.582626330136E-02  0.618662356463E-02  0.656918987977E-02  0.697532279710E-02  0.740646548225E-02
  0.786414866150E-02  0.834999585643E-02  0.886572892390E-02  0.941317391874E-02  0.999426729694E-02
  0.106110624784E-01  0.112657367888E-01  0.119605988025E-01  0.126980961066E-01  0.134808235112E-01
  0.143115317287E-01  0.151931365480E-01  0.161287285301E-01  0.171215832530E-01  0.181751721349E-01
  0.192931738668E-01  0.204794864851E-01  0.217382401194E-01  0.230738104486E-01  0.244908329030E-01
  0.259942176494E-01  0.275891653991E-01  0.292811840804E-01  0.310761064172E-01  0.329801084597E-01
  0.349997291116E-01  0.371418907040E-01  0.394139206629E-01  0.418235743240E-01  0.443790589459E-01
  0.470890589779E-01  0.499627626376E-01  0.530098898568E-01  0.562407216547E-01  0.596661309994E-01
  0.632976152205E-01  0.671473300347E-01  0.712281252506E-01  0.755535822168E-01  0.801380530801E-01
  0.849967019200E-01  0.901455478263E-01  0.956015099865E-01  0.101382454849E+00  0.107507245427E+00
  0.113995792810E+00  0.120869109937E+00  0.128149367705E+00  0.135859953454E+00  0.144025531893E+00
  0.152672108509E+00  0.161827095508E+00  0.171519380318E+00  0.181779396688E+00  0.192639198405E+00
  0.204132535633E+00  0.216294933883E+00  0.229163775594E+00  0.242778384303E+00  0.257180111352E+00
  0.272412425078E+00  0.288521002407E+00  0.305553822727E+00  0.323561263936E+00  0.342596200487E+00
  0.362714103252E+00  0.383973140971E+00  0.406434283037E+00  0.430161403310E+00  0.455221384613E+00
  0.481684223512E+00  0.509623134943E+00  0.539114656167E+00  0.570238749495E+00  0.603078903139E+00
  0.637722229492E+00  0.674259560033E+00  0.712785536011E+00  0.753398693923E+00  0.796201544752E+00
  0.841300645787E+00  0.888806663782E+00  0.938834428056E+00  0.991502972038E+00  0.104693556164E+01
  0.110525970866E+01  0.116660716742E+01  0.123111391240E+01  0.129892009492E+01  0.137016997632E+01
  0.144501183522E+01  0.152359784625E+01  0.160608392733E+01  0.169262955253E+01  0.178339752744E+01
  0.187855372368E+01  0.197826676911E+01  0.208270769020E+01  0.219204950271E+01  0.230646674701E+01
  0.242613496391E+01  0.255123010715E+01  0.268192788838E+01  0.281840305048E+01  0.296082856529E+01
  0.310937475163E+01  0.326420830969E+01  0.342549126805E+01  0.359337983988E+01  0.376802318491E+01
  0.394956207460E+01  0.413812745779E+01  0.433383892535E+01  0.453680307243E+01  0.474711175815E+01
  0.496484026318E+01  0.519004534694E+01  0.542276320718E+01  0.566300734621E+01  0.591076634957E+01
  0.616600158439E+01  0.642864482705E+01  0.669859583130E+01  0.697571985065E+01  0.725984513103E+01
  0.755076039257E+01  0.784821232188E+01  0.815190309952E+01  0.846148799011E+01  0.877657302620E+01
  0.909671281983E+01  0.942140853977E+01  0.975010609543E+01  0.100821945718E+02  0.104170049639E+02
  0.107538092607E+02  0.110918199344E+02  0.114301898895E+02  0.117680129323E+02  0.121043248213E+02
  0.124381049587E+02  0.127682787871E+02  0.130937209509E+02  0.134132592831E+02  0.137256796739E+02
  0.140297318733E+02  0.143241362746E+02  0.146075917188E+02  0.148787843481E+02  0.151363975295E+02
  0.153791228526E+02  0.156056721932E+02  0.158147908146E+02  0.160052714610E+02  0.161759693731E+02
  0.163258181353E+02  0.164538462357E+02  0.165591941922E+02  0.166411320731E+02  0.166990772063E+02
  0.167326118433E+02  0.167415005139E+02  0.167257067782E+02  0.166854090535E+02  0.166210151692E+02
  0.165331752815E+02  0.164227927600E+02  0.162910326467E+02  0.161393272846E+02  0.159693787103E+02
  0.157831574213E+02  0.155828971443E+02  0.153710852664E+02  0.151504486306E+02  0.149239344541E+02
  0.146946861925E+02  0.144660142549E+02  0.142413615614E+02  0.140242640396E+02  0.138183062612E+02
  0.136270725409E+02  0.134540939364E+02  0.133027917151E+02  0.131764179681E+02  0.130779941891E+02
  0.130102487232E+02  0.129755541416E+02  0.129758656834E+02  0.130126620264E+02  0.130868897419E+02
  0.131989128738E+02  0.133484691349E+02  0.135346342312E+02  0.137557957960E+02  0.140096383324E+02
  0.142931404176E+02  0.146025852074E+02  0.149335850120E+02  0.152811204035E+02  0.156395940111E+02
  0.160028988623E+02  0.163645008421E+02  0.167175345442E+02  0.170549114556E+02  0.173694390561E+02
  0.176539490353E+02  0.179014324593E+02  0.181051793801E+02  0.182589200790E+02  0.183569648993E+02
  0.183943394359E+02  0.183669117447E+02  0.182715081883E+02  0.181060145814E+02  0.178694594231E+02
  0.175620762228E+02  0.171853422368E+02  0.167419913426E+02  0.162359992811E+02  0.156725400940E+02
  0.150579132684E+02  0.143994418657E+02  0.137053427375E+02  0.129845708146E+02  0.122466403571E+02
  0.115014269538E+02  0.107589549248E+02  0.100291755507E+02  0.932174218984E+01  0.864578877777E+01
  0.800971837548E+01  0.742100827544E+01  0.688603765983E+01  0.640994282874E+01  0.599650378290E+01
  0.564806443586E+01  0.536548745373E+01  0.514814434786E+01  0.499394199063E+01  0.489938837675E+01
  0.485970180309E+01  0.486896614091E+01  0.492032785565E+01  0.500622076058E+01  0.511860098171E+01
  0.524918031766E+01  0.538965342951E+01  0.553191666693E+01  0.566827496452E+01  0.579163153972E+01
  0.589565447601E+01  0.597491461616E+01  0.602499022577E+01  0.604253541010E+01  0.602531106164E+01
  0.597217893230E+01  0.588306111484E+01  0.575886860497E+01  0.560140369110E+01  0.541324164315E+01
  0.519759756557E+01  0.495818435241E+01  0.469906750036E+01  0.442452209466E+01  0.413889668898E+01
  0.384648802948E+01  0.355142977541E+01  0.325759749617E+01  0.296853133442E+01  0.268737704415E+01
  0.241684521956E+01  0.215918801434E+01  0.191619207745E+01  0.168918602078E+01  0.147906038909E+01
  0.128629797162E+01  0.111101219660E+01  0.952991232140E+00  0.811745645680E+00  0.686557557931E+00
  0.576529460402E+00  0.480631129424E+00  0.397743363355E+00  0.326697575721E+00  0.266310579261E+00
  0.215414179640E+00  0.172879451527E+00  0.137635786379E+00  0.108684977173E+00  0.851107404784E-01
  0.660841731242E-01  0.508657025665E-01  0.388041206821E-01  0.293332932528E-01  0.219671154939E-01
  0.162932416673E-01  0.119660589933E-01  0.869930823387E-02  0.625868109782E-02  0.445465271929E-02
  0.313573990448E-02  0.218231505550E-02  0.150105327056E-02  0.102004661673E-02  0.684584962370E-03
  0.453576539131E-03  0.296562799224E-03  0.191270187882E-03  0.121635108266E-03  0.762365386291E-04
  0.470724161493E-04  0.286200499610E-04  0.171265968028E-04  0.100822890208E-04  0.583605108004E-05
  0.331992809451E-05  0.185506143953E-05  0.101758376852E-05  0.547668309431E-06  0.289030914445E-06
  0.149480181423E-06  0.757108526736E-07  0.375300574677E-07  0.181947823354E-07  0.862084039039E-08
  0.398900666191E-08  0.180118655531E-08
 kinetic energy-density
  0.564924673951E+03  0.568148182212E+03  0.571498050350E+03  0.574978350105E+03  0.578593356396E+03
  0.582347468448E+03  0.586245331151E+03  0.590291771769E+03  0.594491814358E+03  0.598850762796E+03
  0.603374108585E+03  0.608067673286E+03  0.612937472188E+03  0.617989882746E+03  0.623231550405E+03
  0.628669439603E+03  0.634310891880E+03  0.640163570855E+03  0.646235542017E+03  0.652535249432E+03
  0.659071560292E+03  0.665853791038E+03  0.672891684649E+03  0.680195490387E+03  0.687775935985E+03
  0.695644280689E+03  0.703812329527E+03  0.712292458509E+03  0.721097635460E+03  0.730241459718E+03
  0.739738176577E+03  0.749602720864E+03  0.759850738496E+03  0.770498625730E+03  0.781563566035E+03
  0.793063557436E+03  0.805017473835E+03  0.817445081917E+03  0.830367103967E+03  0.843805257788E+03
  0.857782312375E+03  0.872322133376E+03  0.887449747121E+03  0.903191396643E+03  0.919574605195E+03
  0.936628243718E+03  0.954382601088E+03  0.972869458719E+03  0.992122169595E+03  0.101217574117E+04
  0.103306692338E+04  0.105483430011E+04  0.107751839025E+04  0.110116174607E+04  0.112580906515E+04
  0.115150730496E+04  0.117830579860E+04  0.120625639191E+04  0.123541356373E+04  0.126583458118E+04
  0.129757963588E+04  0.133071200660E+04  0.136529822370E+04  0.140140823998E+04  0.143911561315E+04
  0.147849769908E+04  0.151963584564E+04  0.156261561761E+04  0.160752700413E+04  0.165446466553E+04
  0.170352816619E+04  0.175482224495E+04  0.180845707290E+04  0.186454854293E+04  0.192321858028E+04
  0.198459540766E+04  0.204881396727E+04  0.211601613201E+04  0.218635119869E+04  0.225997614768E+04
  0.233705613481E+04  0.241776482986E+04  0.250228488587E+04  0.259080837532E+04  0.268353727172E+04
  0.278068391093E+04  0.288247153433E+04  0.298913481464E+04  0.310092038983E+04  0.321808746528E+04
  0.334090840444E+04  0.346966934247E+04  0.360467086214E+04  0.374622862456E+04  0.389467410766E+04
  0.405035528778E+04  0.421363741457E+04  0.438490376443E+04  0.456455642840E+04  0.475301713762E+04
  0.495072810010E+04  0.515815285592E+04  0.537577716195E+04  0.560410989378E+04  0.584368396285E+04
  0.609505725117E+04  0.635881356901E+04  0.663556360854E+04  0.692594591978E+04  0.723062788895E+04
  0.755030671353E+04  0.788571038340E+04  0.823759865168E+04  0.860676398947E+04  0.899403253809E+04
  0.940026499865E+04  0.982635756449E+04  0.102732427020E+05  0.107418900007E+05  0.112333068743E+05
  0.117485392477E+05  0.122886721284E+05  0.128548300986E+05  0.134481776997E+05  0.140699196937E+05
  0.147213011568E+05  0.154036074675E+05  0.161181640723E+05  0.168663360513E+05  0.176495275160E+05
  0.184691806964E+05  0.193267748063E+05  0.202238245740E+05  0.211618785152E+05  0.221425167464E+05
  0.231673485291E+05  0.242380093108E+05  0.253561573363E+05  0.265234698209E+05  0.277416384929E+05
  0.290123647001E+05  0.303373537901E+05  0.317183089543E+05  0.331569243171E+05  0.346548773427E+05
  0.362138204604E+05  0.378353719002E+05  0.395211056809E+05  0.412725407305E+05  0.430911290886E+05
  0.449782431740E+05  0.469351620736E+05  0.489630568652E+05  0.510629748931E+05  0.532358230683E+05
  0.554823501057E+05  0.578031277843E+05  0.601985311693E+05  0.626687179144E+05  0.652136065353E+05
  0.678328539865E+05  0.705258321870E+05  0.732916040862E+05  0.761288988763E+05  0.790360869903E+05
  0.820111544898E+05  0.850516775402E+05  0.881547968013E+05  0.913171920721E+05  0.945350576261E+05
  0.978040781249E+05  0.101119405872E+06  0.104475639382E+06  0.107866803870E+06  0.111286333925E+06
  0.114727058886E+06  0.118181191343E+06  0.121640319126E+06  0.125095401515E+06  0.128536769984E+06
  0.131954134047E+06  0.135336592743E+06  0.138672652355E+06  0.141950250732E+06  0.145156788807E+06
  0.148279169772E+06  0.151303846266E+06  0.154216876052E+06  0.157003986318E+06  0.159650647050E+06
  0.162142153373E+06  0.164463717047E+06  0.166600566914E+06  0.168538058067E+06  0.170261789407E+06
  0.171757728906E+06  0.173012345874E+06  0.174012749365E+06  0.174746831441E+06  0.175203414075E+06
  0.175372398066E+06  0.175244912280E+06  0.174813461204E+06  0.174072068720E+06  0.173016415810E+06
  0.171643969722E+06  0.169954102039E+06  0.167948193075E+06  0.165629719874E+06  0.163004325252E+06
  0.160079865284E+06  0.156866432909E+06  0.153376355460E+06  0.149624164311E+06  0.145626535202E+06
  0.141402198274E+06  0.136971817414E+06  0.132357839108E+06  0.127584311646E+06  0.122676676173E+06
  0.117661531627E+06  0.112566376154E+06  0.107419327983E+06  0.102248828435E+06  0.970833311518E+05
  0.919509805803E+05  0.868792831508E+05  0.818947767797E+05  0.770227042928E+05  0.722866983409E+05
  0.677084863899E+05  0.633076246154E+05  0.591012686814E+05  0.551039875640E+05  0.513276242873E+05
  0.477812051698E+05  0.444708973313E+05  0.414000128396E+05  0.385690571346E+05  0.359758190626E+05
  0.336154999380E+05  0.314808791371E+05  0.295625135368E+05  0.278489677601E+05  0.263270713491E+05
  0.249821983524E+05  0.237985639829E+05  0.227595324976E+05  0.218479301122E+05  0.210463566406E+05
  0.203374896905E+05  0.197043755562E+05  0.191307014946E+05  0.186010446119E+05  0.181010933335E+05
  0.176178382183E+05  0.171397295558E+05  0.166567999880E+05  0.161607511806E+05  0.156450040550E+05
  0.151047129349E+05  0.145367442895E+05  0.139396213668E+05  0.133134363921E+05  0.126597324538E+05
  0.119813576315E+05  0.112822945288E+05  0.105674690310E+05  0.984254311408E+04  0.911369759525E+04
  0.838741204498E+04  0.767025013688E+04  0.696865916822E+04  0.628879136585E+04  0.563635116427E+04
  0.501646620048E+04  0.443357358589E+04  0.389131187222E+04  0.339241857054E+04  0.293865001701E+04
  0.253075222961E+04  0.216850507223E+04  0.185083330235E+04  0.157594635872E+04  0.134146781248E+04
  0.114454449541E+04  0.981947186169E+03  0.850173608165E+03  0.745555010166E+03  0.664362128908E+03
  0.602905605120E+03  0.557626995372E+03  0.525177641537E+03  0.502483463033E+03  0.486794353075E+03
  0.475717532016E+03  0.467234971020E+03  0.459705701731E+03  0.451854661386E+03  0.442750037844E+03
  0.431771692239E+03  0.418573093019E+03  0.403039427332E+03  0.385244158040E+03  0.365406149434E+03
  0.343849037887E+03  0.320964168198E+03  0.297178046441E+03  0.272924717111E+03  0.248623466094E+03
  0.224661620061E+03  0.201382224811E+03  0.179076136488E+03  0.157977965005E+03  0.138265359438E+03
  0.120060737634E+03  0.103435230583E+03  0.884139744094E+02  0.749823514760E+02  0.630927047191E+02
  0.526711398098E+02  0.436241022725E+02  0.358444888728E+02  0.292171224479E+02  0.236234835446E+02
  0.189456497197E+02  0.150694412297E+02  0.118868096314E+02  0.929753299170E+01  0.721029847333E+01
  0.554326183645E+01  0.422417548776E+01  0.319017424411E+01  0.238730245846E+01  0.176985854611E+01
  0.129962392884E+01  0.945033277673E+00  0.680332420228E+00  0.484759609402E+00  0.341775985482E+00
  0.238362169264E+00  0.164390518134E+00  0.112076624642E+00  0.755091596800E-01  0.502539747368E-01
  0.330262943515E-01  0.214236406670E-01  0.137116373122E-01  0.865486543296E-02  0.538533674780E-02
  0.330178091252E-02  0.199371417317E-02  0.118508244006E-02  0.693094425926E-03  0.398636218367E-03
  0.225360947120E-03  0.125161055162E-03  0.682515778899E-04  0.365229248685E-04  0.191679352223E-04
  0.986006176363E-05  0.496826873583E-05  0.245056633038E-05  0.118240462318E-05  0.557690888684E-06
  0.256936230106E-06  0.115538155642E-06
 mkinetic energy-density pseudized
  0.143345306566E-05  0.152443633585E-05  0.162119444137E-05  0.172409391908E-05  0.183352457045E-05
  0.194990093820E-05  0.207366387664E-05  0.220528222173E-05  0.234525456710E-05  0.249411115281E-05
  0.265241587400E-05  0.282076841701E-05  0.299980653111E-05  0.319020844442E-05  0.339269543313E-05
  0.360803455383E-05  0.383704154926E-05  0.408058393850E-05  0.433958430326E-05  0.461502378279E-05
  0.490794579063E-05  0.521945996721E-05  0.555074638337E-05  0.590306001071E-05  0.627773547561E-05
  0.667619211501E-05  0.709993935317E-05  0.755058241958E-05  0.802982842986E-05  0.853949285263E-05
  0.908150638681E-05  0.965792227543E-05  0.102709240837E-04  0.109228339708E-04  0.116161214864E-04
  0.123534129259E-04  0.131375012795E-04  0.139713568121E-04  0.148581383153E-04  0.158012050739E-04
  0.168041295908E-04  0.178707111206E-04  0.190049900617E-04  0.202112632623E-04  0.214941002972E-04
  0.228583607784E-04  0.243092127640E-04  0.258521523358E-04  0.274930244192E-04  0.292380449250E-04
  0.310938242961E-04  0.330673925492E-04  0.351662259054E-04  0.373982751114E-04  0.397719955586E-04
  0.422963793131E-04  0.449809891793E-04  0.478359949251E-04  0.508722118073E-04  0.541011415407E-04
  0.575350158690E-04  0.611868429003E-04  0.650704563841E-04  0.692005681153E-04  0.735928236653E-04
  0.782638616493E-04  0.832313767563E-04  0.885141867789E-04  0.941323038983E-04  0.100107010493E-03
  0.106460939759E-03  0.113218161450E-03  0.120404273053E-03  0.128046496759E-03  0.136173782582E-03
  0.144816918026E-03  0.154008644712E-03  0.163783782409E-03  0.174179360933E-03  0.185234760422E-03
  0.196991860511E-03  0.209495198979E-03  0.222792140462E-03  0.236933055875E-03  0.251971513222E-03
  0.267964480515E-03  0.284972541578E-03  0.303060125540E-03  0.322295750898E-03  0.342752285071E-03
  0.364507220427E-03  0.387642967828E-03  0.412247168803E-03  0.438413027544E-03  0.466239663961E-03
  0.495832489155E-03  0.527303604712E-03  0.560772227348E-03  0.596365140500E-03  0.634217174579E-03
  0.674471717702E-03  0.717281258842E-03  0.762807965445E-03  0.811224297710E-03  0.862713661852E-03
  0.917471104823E-03  0.975704053130E-03  0.103763309853E-02  0.110349283361E-02  0.117353274035E-02
  0.124801813514E-02  0.132723117373E-02  0.141147191993E-02  0.150105948222E-02  0.159633322239E-02
  0.169765404092E-02  0.180540574398E-02  0.191999649708E-02  0.204186037101E-02  0.217145898595E-02
  0.230928325974E-02  0.245585526729E-02  0.261173021779E-02  0.277749855750E-02  0.295378820592E-02
  0.314126693384E-02  0.334064489230E-02  0.355267730195E-02  0.377816731309E-02  0.401796904718E-02
  0.427299083121E-02  0.454419863735E-02  0.483261974078E-02  0.513934660954E-02  0.546554104114E-02
  0.581243856157E-02  0.618135310330E-02  0.657368198002E-02  0.699091117685E-02  0.743462097614E-02
  0.790649193993E-02  0.840831127184E-02  0.894197958235E-02  0.950951808304E-02  0.101130762370E-01
  0.107549398940E-01  0.114375399418E-01  0.121634615056E-01  0.129354537303E-01  0.137564401834E-01
  0.146295299163E-01  0.155580292270E-01  0.165454541684E-01  0.175955438478E-01  0.187122745700E-01
  0.198998748757E-01  0.211628415319E-01  0.225059565352E-01  0.239343051913E-01  0.254532953384E-01
  0.270686777883E-01  0.287865680595E-01  0.306134694858E-01  0.325562977864E-01  0.346224071892E-01
  0.368196182062E-01  0.391562471633E-01  0.416411375968E-01  0.442836936322E-01  0.470939154712E-01
  0.500824371188E-01  0.532605664900E-01  0.566403280477E-01  0.602345081280E-01  0.640567031226E-01
  0.681213706961E-01  0.724438842283E-01  0.770405906835E-01  0.819288721185E-01  0.871272110580E-01
  0.926552599769E-01  0.985339151447E-01  0.104785395103E+00  0.111433324063E+00  0.118502820525E+00
  0.126020591449E+00  0.134015032310E+00  0.142516333403E+00  0.151556592786E+00  0.161169936262E+00
  0.171392644829E+00  0.182263290059E+00  0.193822877885E+00  0.206115001303E+00  0.219186002526E+00
  0.233085145175E+00  0.247864797081E+00  0.263580624360E+00  0.280291797411E+00  0.298061209559E+00
  0.316955709078E+00  0.337046345380E+00  0.358408630200E+00  0.381122814651E+00  0.405274183046E+00
  0.430953364465E+00  0.458256663065E+00  0.487286408188E+00  0.518151325374E+00  0.550966929439E+00
  0.585855940810E+00  0.622948726397E+00  0.662383766286E+00  0.704308147637E+00  0.748878087181E+00
  0.796259483785E+00  0.846628502586E+00  0.900172192248E+00  0.957089136926E+00  0.101759014457E+01
  0.108189897321E+01  0.115025309692E+01  0.122290451310E+01  0.130012059281E+01  0.138218497585E+01
  0.146939851210E+01  0.156208025091E+01  0.166056847989E+01  0.176522181462E+01  0.187642034063E+01
  0.199456680861E+01  0.212008788402E+01  0.225343545163E+01  0.239508797543E+01  0.254555191394E+01
  0.270536319052E+01  0.287508871770E+01  0.305532797411E+01  0.324671463160E+01  0.344991822961E+01
  0.366564589277E+01  0.389464408639E+01  0.413770040364E+01  0.439564537632E+01  0.466935429968E+01
  0.495974905975E+01  0.526779994933E+01  0.559452745645E+01  0.594100400611E+01  0.630835563300E+01
  0.669776355905E+01  0.711046564589E+01  0.754775768735E+01  0.801099450205E+01  0.850159078061E+01
  0.902102163502E+01  0.957082279107E+01  0.101525903563E+02  0.107679800879E+02  0.114187060732E+02
  0.121065387288E+02  0.128333020073E+02  0.136008696921E+02  0.144111606459E+02  0.152661328614E+02
  0.161677761501E+02  0.171181032851E+02  0.181191393976E+02  0.191729094060E+02  0.202814232399E+02
  0.214466585962E+02  0.226705409509E+02  0.239549205229E+02  0.253015458736E+02  0.267120338045E+02
  0.281878352021E+02  0.297301964676E+02  0.313401161628E+02  0.330182965052E+02  0.347650893531E+02
  0.365804363450E+02  0.384638028890E+02  0.404141057549E+02  0.424296340910E+02  0.445079637917E+02
  0.466458652709E+02  0.488392048650E+02  0.510828403016E+02  0.533705109311E+02  0.556947237406E+02
  0.580466365535E+02  0.604159402804E+02  0.627907426296E+02  0.651574563137E+02  0.675006955183E+02
  0.698031852193E+02  0.720456888560E+02  0.742069608800E+02  0.762637317882E+02  0.781907343989E+02
  0.799607812952E+02  0.815449045045E+02  0.829125695234E+02  0.840319766486E+02  0.848704631075E+02
  0.853950195437E+02  0.855729337989E+02  0.853725734151E+02  0.847643155565E+02  0.837216287998E+02
  0.822223050816E+02  0.802498316077E+02  0.777948812990E+02  0.748568859605E+02  0.714456384457E+02
  0.675828484250E+02  0.633035509179E+02  0.586572378112E+02  0.537085509339E+02  0.485373422962E+02
  0.432378751367E+02  0.379169118175E+02  0.326904161302E+02  0.276785945326E+02  0.229990213044E+02
  0.187576464512E+02  0.150375838558E+02  0.118857332122E+02  0.929753299170E+01  0.721029847333E+01
  0.554326183645E+01  0.422417548776E+01  0.319017424411E+01  0.238730245846E+01  0.176985854611E+01
  0.129962392884E+01  0.945033277673E+00  0.680332420228E+00  0.484759609402E+00  0.341775985482E+00
  0.238362169264E+00  0.164390518134E+00  0.112076624642E+00  0.755091596800E-01  0.502539747368E-01
  0.330262943515E-01  0.214236406670E-01  0.137116373122E-01  0.865486543296E-02  0.538533674780E-02
  0.330178091252E-02  0.199371417317E-02  0.118508244006E-02  0.693094425926E-03  0.398636218367E-03
  0.225360947120E-03  0.125161055162E-03  0.682515778899E-04  0.365229248685E-04  0.191679352223E-04
  0.986006176363E-05  0.496826873583E-05  0.245056633038E-05  0.118240462318E-05  0.557690888684E-06
  0.256936230106E-06  0.115538155642E-06
 local pseudopotential core
 -0.249912085206E+03 -0.249913196112E+03 -0.249914273354E+03 -0.249915317951E+03 -0.249916330892E+03
 -0.249917313137E+03 -0.249918265614E+03 -0.249919189226E+03 -0.249920084846E+03 -0.249920953323E+03
 -0.249921795479E+03 -0.249922612112E+03 -0.249923403993E+03 -0.249924171873E+03 -0.249924916478E+03
 -0.249925638514E+03 -0.249926338664E+03 -0.249927017589E+03 -0.249927675934E+03 -0.249928314320E+03
 -0.249928933352E+03 -0.249929533616E+03 -0.249930115680E+03 -0.249930680094E+03 -0.249931227393E+03
 -0.249931758094E+03 -0.249932272699E+03 -0.249932771695E+03 -0.249933255554E+03 -0.249933724734E+03
 -0.249934179677E+03 -0.249934620815E+03 -0.249935048564E+03 -0.249935463329E+03 -0.249935865501E+03
 -0.249936255461E+03 -0.249936633577E+03 -0.249937000205E+03 -0.249937355693E+03 -0.249937700375E+03
 -0.249938034578E+03 -0.249938358616E+03 -0.249938672794E+03 -0.249938977410E+03 -0.249939272749E+03
 -0.249939559091E+03 -0.249939836704E+03 -0.249940105850E+03 -0.249940366783E+03 -0.249940619746E+03
 -0.249940864978E+03 -0.249941102708E+03 -0.249941333160E+03 -0.249941556549E+03 -0.249941773084E+03
 -0.249941982968E+03 -0.249942186396E+03 -0.249942383558E+03 -0.249942574637E+03 -0.249942759810E+03
 -0.249942939250E+03 -0.249943113121E+03 -0.249943281585E+03 -0.249943444797E+03 -0.249943602906E+03
 -0.249943756057E+03 -0.249943904389E+03 -0.249944048038E+03 -0.249944187133E+03 -0.249944321799E+03
 -0.249944452157E+03 -0.249944578324E+03 -0.249944700410E+03 -0.249944818523E+03 -0.249944932766E+03
 -0.249945043238E+03 -0.249945150034E+03 -0.249945253243E+03 -0.249945352953E+03 -0.249945449246E+03
 -0.249945542200E+03 -0.249945631889E+03 -0.249945718385E+03 -0.249945801754E+03 -0.249945882058E+03
 -0.249945959356E+03 -0.249946033702E+03 -0.249946105149E+03 -0.249946173741E+03 -0.249946239523E+03
 -0.249946302532E+03 -0.249946362804E+03 -0.249946420368E+03 -0.249946475251E+03 -0.249946527475E+03
 -0.249946577056E+03 -0.249946624009E+03 -0.249946668340E+03 -0.249946710053E+03 -0.249946749147E+03
 -0.249946785614E+03 -0.249946819444E+03 -0.249946850618E+03 -0.249946879114E+03 -0.249946904903E+03
 -0.249946927949E+03 -0.249946948212E+03 -0.249946965643E+03 -0.249946980188E+03 -0.249946991784E+03
 -0.249947000361E+03 -0.249947005841E+03 -0.249947008139E+03 -0.249947007159E+03 -0.249947002797E+03
 -0.249946994939E+03 -0.249946983461E+03 -0.249946968227E+03 -0.249946949090E+03 -0.249946925893E+03
 -0.249946898463E+03 -0.249946866615E+03 -0.249946830150E+03 -0.249946788855E+03 -0.249946742497E+03
 -0.249946690831E+03 -0.249946633590E+03 -0.249946570491E+03 -0.249946501229E+03 -0.249946425479E+03
 -0.249946342891E+03 -0.249946253094E+03 -0.249946155690E+03 -0.249946050252E+03 -0.249945936329E+03
 -0.249945813435E+03 -0.249945681054E+03 -0.249945538635E+03 -0.249945385590E+03 -0.249945221293E+03
 -0.249945045076E+03 -0.249944856228E+03 -0.249944653992E+03 -0.249944437559E+03 -0.249944206071E+03
 -0.249943958611E+03 -0.249943694205E+03 -0.249943411815E+03 -0.249943110336E+03 -0.249942788591E+03
 -0.249942445329E+03 -0.249942079217E+03 -0.249941688837E+03 -0.249941272681E+03 -0.249940829143E+03
 -0.249940356514E+03 -0.249939852977E+03 -0.249939316598E+03 -0.249938745319E+03 -0.249938136951E+03
 -0.249937489167E+03 -0.249936799488E+03 -0.249936065281E+03 -0.249935283741E+03 -0.249934451889E+03
 -0.249933566552E+03 -0.249932624358E+03 -0.249931621718E+03 -0.249930554818E+03 -0.249929419598E+03
 -0.249928211742E+03 -0.249926926659E+03 -0.249925559466E+03 -0.249924104971E+03 -0.249922557649E+03
 -0.249920911629E+03 -0.249919160662E+03 -0.249917298106E+03 -0.249915316896E+03 -0.249913209519E+03
 -0.249910967984E+03 -0.249908583793E+03 -0.249906047912E+03 -0.249903350729E+03 -0.249900482026E+03
 -0.249897430935E+03 -0.249894185901E+03 -0.249890734633E+03 -0.249887064065E+03 -0.249883160300E+03
 -0.249879008561E+03 -0.249874593133E+03 -0.249869897309E+03 -0.249864903321E+03 -0.249859592277E+03
 -0.249853944086E+03 -0.249847937389E+03 -0.249841549472E+03 -0.249834756185E+03 -0.249827531849E+03
 -0.249819849162E+03 -0.249811679093E+03 -0.249802990776E+03 -0.249793751397E+03 -0.249783926063E+03
 -0.249773477681E+03 -0.249762366813E+03 -0.249750551532E+03 -0.249737987264E+03 -0.249724626624E+03
 -0.249710419236E+03 -0.249695311551E+03 -0.249679246645E+03 -0.249662164007E+03 -0.249643999320E+03
 -0.249624684217E+03 -0.249604146034E+03 -0.249582307538E+03 -0.249559086649E+03 -0.249534396132E+03
 -0.249508143284E+03 -0.249480229588E+03 -0.249450550363E+03 -0.249418994376E+03 -0.249385443442E+03
 -0.249349771995E+03 -0.249311846639E+03 -0.249271525663E+03 -0.249228658540E+03 -0.249183085385E+03
 -0.249134636389E+03 -0.249083131220E+03 -0.249028378382E+03 -0.248970174551E+03 -0.248908303862E+03
 -0.248842537159E+03 -0.248772631207E+03 -0.248698327861E+03 -0.248619353180E+03 -0.248535416511E+03
 -0.248446209505E+03 -0.248351405099E+03 -0.248250656434E+03 -0.248143595722E+03 -0.248029833061E+03
 -0.247908955187E+03 -0.247780524166E+03 -0.247644076035E+03 -0.247499119367E+03 -0.247345133788E+03
 -0.247181568419E+03 -0.247007840268E+03 -0.246823332547E+03 -0.246627392938E+03 -0.246419331791E+03
 -0.246198420268E+03 -0.245963888435E+03 -0.245714923298E+03 -0.245450666799E+03 -0.245170213767E+03
 -0.244872609842E+03 -0.244556849380E+03 -0.244221873338E+03 -0.243866567169E+03 -0.243489758736E+03
 -0.243090216252E+03 -0.242666646291E+03 -0.242217691864E+03 -0.241741930614E+03 -0.241237873141E+03
 -0.240703961507E+03 -0.240138567944E+03 -0.239539993824E+03 -0.238906468932E+03 -0.238236151095E+03
 -0.237527126231E+03 -0.236777408883E+03 -0.235984943306E+03 -0.235147605191E+03 -0.234263204112E+03
 -0.233329486778E+03 -0.232344141204E+03 -0.231304801895E+03 -0.230209056164E+03 -0.229054451693E+03
 -0.227838505473E+03 -0.226558714251E+03 -0.225212566612E+03 -0.223797556854E+03 -0.222311200778E+03
 -0.220751053570E+03 -0.219114729910E+03 -0.217399926468E+03 -0.215604446957E+03 -0.213726229916E+03
 -0.211763379384E+03 -0.209714198675E+03 -0.207577227443E+03 -0.205351282257E+03 -0.203035500915E+03
 -0.200629390717E+03 -0.198132880907E+03 -0.195546379389E+03 -0.192870833642E+03 -0.190107795349E+03
 -0.187259487513E+03 -0.184328871411E+03 -0.181319708353E+03 -0.178236606962E+03 -0.175085039822E+03
 -0.171871302247E+03 -0.168602369399E+03 -0.165285585851E+03 -0.161928098501E+03 -0.158535935884E+03
 -0.155112683072E+03 -0.151657868156E+03 -0.148165530694E+03 -0.144623947106E+03 -0.141017813143E+03
 -0.137333569256E+03 -0.133565938093E+03 -0.129718264100E+03 -0.125839792036E+03 -0.121996148832E+03
 -0.118026590405E+03 -0.113829280472E+03 -0.110404125507E+03 -0.107106645652E+03 -0.103909079988E+03
 -0.100809662562E+03 -0.977889975706E+02 -0.948235133432E+02 -0.919408630920E+02 -0.891511595484E+02
 -0.864470681228E+02 -0.838256938114E+02 -0.812843209145E+02 -0.788203709452E+02 -0.764313798022E+02
 -0.741149904919E+02 -0.718689396659E+02 -0.696910502275E+02 -0.675792244678E+02 -0.655314372476E+02
 -0.635457321950E+02 -0.616202171050E+02 -0.597530606304E+02 -0.579424894109E+02 -0.561867855482E+02
 -0.544842839857E+02 -0.528333721481E+02 -0.512324849538E+02 -0.496801066562E+02 -0.481747668790E+02
 -0.467150400894E+02 -0.452995440292E+02 -0.439269384069E+02 -0.425959235059E+02 -0.413052390904E+02
 -0.400536631119E+02 -0.388400105506E+02 -0.376631323237E+02 -0.365219141679E+02 -0.354152755934E+02
 -0.343421688494E+02 -0.333015779327E+02
 pspotential valence only
 -0.184065555708E+03 -0.184066666622E+03 -0.184067743872E+03 -0.184068788478E+03 -0.184069801429E+03
 -0.184070783683E+03 -0.184071736171E+03 -0.184072659794E+03 -0.184073555426E+03 -0.184074423916E+03
 -0.184075266086E+03 -0.184076082733E+03 -0.184076874629E+03 -0.184077642526E+03 -0.184078387148E+03
 -0.184079109203E+03 -0.184079809372E+03 -0.184080488318E+03 -0.184081146685E+03 -0.184081785095E+03
 -0.184082404153E+03 -0.184083004443E+03 -0.184083586535E+03 -0.184084150980E+03 -0.184084698311E+03
 -0.184085229046E+03 -0.184085743687E+03 -0.184086242722E+03 -0.184086726622E+03 -0.184087195846E+03
 -0.184087650836E+03 -0.184088092023E+03 -0.184088519825E+03 -0.184088934646E+03 -0.184089336877E+03
 -0.184089726900E+03 -0.184090105083E+03 -0.184090471784E+03 -0.184090827348E+03 -0.184091172111E+03
 -0.184091506400E+03 -0.184091830529E+03 -0.184092144805E+03 -0.184092449524E+03 -0.184092744974E+03
 -0.184093031432E+03 -0.184093309170E+03 -0.184093578449E+03 -0.184093839522E+03 -0.184094092635E+03
 -0.184094338027E+03 -0.184094575927E+03 -0.184094806559E+03 -0.184095030139E+03 -0.184095246878E+03
 -0.184095456979E+03 -0.184095660638E+03 -0.184095858044E+03 -0.184096049384E+03 -0.184096234835E+03
 -0.184096414569E+03 -0.184096588754E+03 -0.184096757552E+03 -0.184096921118E+03 -0.184097079604E+03
 -0.184097233157E+03 -0.184097381916E+03 -0.184097526018E+03 -0.184097665595E+03 -0.184097800775E+03
 -0.184097931678E+03 -0.184098058425E+03 -0.184098181128E+03 -0.184098299898E+03 -0.184098414839E+03
 -0.184098526053E+03 -0.184098633638E+03 -0.184098737686E+03 -0.184098838289E+03 -0.184098935531E+03
 -0.184099029495E+03 -0.184099120258E+03 -0.184099207896E+03 -0.184099292479E+03 -0.184099374074E+03
 -0.184099452745E+03 -0.184099528553E+03 -0.184099601552E+03 -0.184099671797E+03 -0.184099739335E+03
 -0.184099804212E+03 -0.184099866471E+03 -0.184099926148E+03 -0.184099983278E+03 -0.184100037891E+03
 -0.184100090014E+03 -0.184100139669E+03 -0.184100186874E+03 -0.184100231643E+03 -0.184100273988E+03
 -0.184100313912E+03 -0.184100351418E+03 -0.184100386502E+03 -0.184100419155E+03 -0.184100449366E+03
 -0.184100477114E+03 -0.184100502378E+03 -0.184100525127E+03 -0.184100545327E+03 -0.184100562938E+03
 -0.184100577911E+03 -0.184100590194E+03 -0.184100599726E+03 -0.184100606439E+03 -0.184100610259E+03
 -0.184100611102E+03 -0.184100608876E+03 -0.184100603482E+03 -0.184100594811E+03 -0.184100582742E+03
 -0.184100567148E+03 -0.184100547887E+03 -0.184100524808E+03 -0.184100497748E+03 -0.184100466529E+03
 -0.184100430962E+03 -0.184100390843E+03 -0.184100345953E+03 -0.184100296055E+03 -0.184100240897E+03
 -0.184100180210E+03 -0.184100113703E+03 -0.184100041066E+03 -0.184099961970E+03 -0.184099876059E+03
 -0.184099782955E+03 -0.184099682255E+03 -0.184099573528E+03 -0.184099456313E+03 -0.184099330121E+03
 -0.184099194427E+03 -0.184099048674E+03 -0.184098892268E+03 -0.184098724575E+03 -0.184098544920E+03
 -0.184098352583E+03 -0.184098146799E+03 -0.184097926751E+03 -0.184097691570E+03 -0.184097440333E+03
 -0.184097172053E+03 -0.184096885683E+03 -0.184096580106E+03 -0.184096254135E+03 -0.184095906506E+03
 -0.184095535874E+03 -0.184095140807E+03 -0.184094719783E+03 -0.184094271181E+03 -0.184093793277E+03
 -0.184093284236E+03 -0.184092742107E+03 -0.184092164814E+03 -0.184091550149E+03 -0.184090895762E+03
 -0.184090199154E+03 -0.184089457667E+03 -0.184088668474E+03 -0.184087828567E+03 -0.184086934748E+03
 -0.184085983615E+03 -0.184084971548E+03 -0.184083894699E+03 -0.184082748975E+03 -0.184081530023E+03
 -0.184080233212E+03 -0.184078853619E+03 -0.184077386008E+03 -0.184075824808E+03 -0.184074164097E+03
 -0.184072397577E+03 -0.184070518550E+03 -0.184068519892E+03 -0.184066394028E+03 -0.184064132904E+03
 -0.184061727952E+03 -0.184059170063E+03 -0.184056449551E+03 -0.184053556115E+03 -0.184050478801E+03
 -0.184047205962E+03 -0.184043725213E+03 -0.184040023384E+03 -0.184036086471E+03 -0.184031899584E+03
 -0.184027446890E+03 -0.184022711556E+03 -0.184017675681E+03 -0.184012320233E+03 -0.184006624978E+03
 -0.184000568400E+03 -0.183994127625E+03 -0.183987278335E+03 -0.183979994672E+03 -0.183972249150E+03
 -0.183964012545E+03 -0.183955253789E+03 -0.183945939857E+03 -0.183936035639E+03 -0.183925503815E+03
 -0.183914304712E+03 -0.183902396162E+03 -0.183889733342E+03 -0.183876268610E+03 -0.183861951331E+03
 -0.183846727688E+03 -0.183830540488E+03 -0.183813328950E+03 -0.183795028483E+03 -0.183775570452E+03
 -0.183754881929E+03 -0.183732885425E+03 -0.183709498613E+03 -0.183684634030E+03 -0.183658198765E+03
 -0.183630094123E+03 -0.183600215272E+03 -0.183568450878E+03 -0.183534682701E+03 -0.183498785186E+03
 -0.183460625018E+03 -0.183420060663E+03 -0.183376941869E+03 -0.183331109155E+03 -0.183282393261E+03
 -0.183230614571E+03 -0.183175582511E+03 -0.183117094905E+03 -0.183054937303E+03 -0.182988882280E+03
 -0.182918688685E+03 -0.182844100871E+03 -0.182764847870E+03 -0.182680642545E+03 -0.182591180690E+03
 -0.182496140095E+03 -0.182395179577E+03 -0.182287937954E+03 -0.182174032998E+03 -0.182053060328E+03
 -0.181924592281E+03 -0.181788176731E+03 -0.181643335876E+03 -0.181489564995E+03 -0.181326331163E+03
 -0.181153071946E+03 -0.180969194071E+03 -0.180774072069E+03 -0.180567046924E+03 -0.180347424695E+03
 -0.180114475166E+03 -0.179867430496E+03 -0.179605483907E+03 -0.179327788407E+03 -0.179033455585E+03
 -0.178721554474E+03 -0.178391110522E+03 -0.178041104686E+03 -0.177670472682E+03 -0.177278104420E+03
 -0.176862843661E+03 -0.176423487932E+03 -0.175958788744E+03 -0.175467452168E+03 -0.174948139815E+03
 -0.174399470270E+03 -0.173820021071E+03 -0.173208331270E+03 -0.172562904674E+03 -0.171882213838E+03
 -0.171164704895E+03 -0.170408803319E+03 -0.169612920714E+03 -0.168775462739E+03 -0.167894838266E+03
 -0.166969469887E+03 -0.165997805887E+03 -0.164978333791E+03 -0.163909595615E+03 -0.162790204929E+03
 -0.161618865860E+03 -0.160394394144E+03 -0.159115740362E+03 -0.157782015461E+03 -0.156392518688E+03
 -0.154946768057E+03 -0.153444533472E+03 -0.151885872630E+03 -0.150271169851E+03 -0.148601177954E+03
 -0.146877063320E+03 -0.145100454212E+03 -0.143273492362E+03 -0.141398887590E+03 -0.139479974837E+03
 -0.137520772204E+03 -0.135526037199E+03 -0.133501315926E+03 -0.131452975785E+03 -0.129388205258E+03
 -0.127314953341E+03 -0.125241764601E+03 -0.123177443708E+03 -0.121130460101E+03 -0.119107995585E+03
 -0.117114583814E+03 -0.115150457415E+03 -0.113210072952E+03 -0.111281788527E+03 -0.109349994043E+03
 -0.107400379893E+03 -0.105426413352E+03 -0.103429612792E+03 -0.101399592641E+03 -0.992667827971E+02
 -0.968745808013E+02 -0.941310262185E+02 -0.920452797884E+02 -0.899816135156E+02 -0.879206190687E+02
 -0.858685516543E+02 -0.838137268973E+02 -0.817399489428E+02 -0.796818529773E+02 -0.776560712069E+02
 -0.756612750214E+02 -0.737000182326E+02 -0.717744844924E+02 -0.698864524872E+02 -0.680373180214E+02
 -0.662281207153E+02 -0.644595734288E+02 -0.627320838339E+02 -0.610457683792E+02 -0.594004585810E+02
 -0.577957037615E+02 -0.562307774144E+02 -0.547046932278E+02 -0.532162381134E+02 -0.517640252729E+02
 -0.503465668231E+02 -0.489623608994E+02 -0.476099771031E+02 -0.462881568334E+02 -0.449958685362E+02
 -0.437323642199E+02 -0.424971997046E+02 -0.412902299564E+02 -0.401115794979E+02 -0.389615912505E+02
 -0.378407579128E+02 -0.367496406550E+02 -0.356887808675E+02 -0.346586119620E+02 -0.336593794631E+02
 -0.326910780740E+02 -0.317534133258E+02
 core charge-density (pseudized)
  0.153970868310E-07  0.163743614590E-07  0.174136650735E-07  0.185189347410E-07  0.196943574190E-07
  0.209443858171E-07  0.222737552645E-07  0.236875016484E-07  0.251909804908E-07  0.267898872362E-07
  0.284902788266E-07  0.302985966469E-07  0.322216909256E-07  0.342668466846E-07  0.364418113363E-07
  0.387548240324E-07  0.412146468746E-07  0.438305981079E-07  0.466125874187E-07  0.495711534755E-07
  0.527175038504E-07  0.560635574757E-07  0.596219897950E-07  0.634062807799E-07  0.674307659943E-07
  0.717106909004E-07  0.762622686109E-07  0.811027413074E-07  0.862504455564E-07  0.917248817717E-07
  0.975467880854E-07  0.103738218907E-06  0.110322628471E-06  0.117324959684E-06  0.124771738611E-06
  0.132691174967E-06  0.141113268973E-06  0.150069925006E-06  0.159595072459E-06  0.169724794269E-06
  0.180497463605E-06  0.191953889236E-06  0.204137470118E-06  0.217094359798E-06  0.230873641250E-06
  0.245527512813E-06  0.261111485925E-06  0.277684595408E-06  0.295309623106E-06  0.314053335710E-06
  0.333986737683E-06  0.355185340236E-06  0.377729447376E-06  0.401704460115E-06  0.427201199978E-06
  0.454316253054E-06  0.483152335875E-06  0.513818684531E-06  0.546431468464E-06  0.581114230545E-06
  0.617998355070E-06  0.657223565464E-06  0.698938453577E-06  0.743301042576E-06  0.790479385552E-06
  0.840652202143E-06  0.894009555540E-06  0.950753572483E-06  0.101109920894E-05  0.107527506441E-05
  0.114352424785E-05  0.121610529866E-05  0.129329316602E-05  0.137538025046E-05  0.146267751153E-05
  0.155551564570E-05  0.165424633913E-05  0.175924359990E-05  0.187090517476E-05  0.198965405589E-05
  0.211594008321E-05  0.225024164844E-05  0.239306750731E-05  0.254495870674E-05  0.270649063442E-05
  0.287827519844E-05  0.306096314519E-05  0.325524652452E-05  0.346186131122E-05  0.368159019299E-05
  0.391526553526E-05  0.416377253431E-05  0.442805257036E-05  0.470910677362E-05  0.500799981655E-05
  0.532586394694E-05  0.566390327680E-05  0.602339834360E-05  0.640571096091E-05  0.681228937692E-05
  0.724467376040E-05  0.770450203473E-05  0.819351608234E-05  0.871356834274E-05  0.926662882948E-05
  0.985479259230E-05  0.104802876529E-04  0.111454834446E-04  0.118528997869E-04  0.126052164304E-04
  0.134052832075E-04  0.142561308259E-04  0.151609823493E-04  0.161232654046E-04  0.171466251650E-04
  0.182349381568E-04  0.193923269417E-04  0.206231757321E-04  0.219321469957E-04  0.233241991155E-04
  0.248046051686E-04  0.263789728984E-04  0.280532659524E-04  0.298338264693E-04  0.317273990977E-04
  0.337411565398E-04  0.358827267153E-04  0.381602216492E-04  0.405822681921E-04  0.431580406894E-04
  0.458972957231E-04  0.488104090585E-04  0.519084149331E-04  0.552030478394E-04  0.587067869572E-04
  0.624329034046E-04  0.663955104863E-04  0.706096171281E-04  0.750911847019E-04  0.798571874528E-04
  0.849256767597E-04  0.903158494700E-04  0.960481205680E-04  0.102144200451E-03  0.108627177102E-03
  0.115521603480E-03  0.122853590438E-03  0.130650905541E-03  0.138943078144E-03  0.147761511127E-03
  0.157139599717E-03  0.167112857829E-03  0.177719052424E-03  0.188998346366E-03  0.200993450341E-03
  0.213749784385E-03  0.227315649648E-03  0.241742411034E-03  0.257084691401E-03  0.273400578049E-03
  0.290751842287E-03  0.309204172879E-03  0.328827424269E-03  0.349695880497E-03  0.371888535811E-03
  0.395489393008E-03  0.420587780643E-03  0.447278690270E-03  0.475663134991E-03  0.505848530642E-03
  0.537949101045E-03  0.572086308832E-03  0.608389313440E-03  0.646995457993E-03  0.688050786864E-03
  0.731710595850E-03  0.778140016984E-03  0.827514640157E-03  0.880021173845E-03  0.935858147371E-03
  0.995236657287E-03  0.105838116062E-02  0.112553031790E-02  0.119693788903E-02  0.127287368526E-02
  0.135362458081E-02  0.143949558772E-02  0.153081099782E-02  0.162791559602E-02  0.173117594928E-02
  0.184098177575E-02  0.195774739914E-02  0.208191329341E-02  0.221394772330E-02  0.235434848636E-02
  0.250364476285E-02  0.266239907971E-02  0.283120939560E-02  0.301071131411E-02  0.320158043288E-02
  0.340453483643E-02  0.362033774134E-02  0.384980030258E-02  0.409378459033E-02  0.435320674713E-02
  0.462904033577E-02  0.492231988854E-02  0.523414466952E-02  0.556568266143E-02  0.591817478983E-02
  0.629293939735E-02  0.669137698180E-02  0.711497521195E-02  0.756531423588E-02  0.804407229701E-02
  0.855303167353E-02  0.909408495747E-02  0.966924169017E-02  0.102806353713E-01  0.109305308589E-01
  0.116213321784E-01  0.123555907586E-01  0.131360141129E-01  0.139654749843E-01  0.148470209716E-01
  0.157838846555E-01  0.167794942414E-01  0.178374847357E-01  0.189617096710E-01  0.201562533953E-01
  0.214254439362E-01  0.227738664526E-01  0.242063772799E-01  0.257281185747E-01  0.273445335592E-01
  0.290613823611E-01  0.308847584409E-01  0.328211055893E-01  0.348772354732E-01  0.370603456968E-01
  0.393780383363E-01  0.418383388931E-01  0.444497155994E-01  0.472210989902E-01  0.501619016424E-01
  0.532820379568E-01  0.565919438383E-01  0.601025961017E-01  0.638255313988E-01  0.677728644319E-01
  0.719573051743E-01  0.763921747800E-01  0.810914198134E-01  0.860696243719E-01  0.913420196191E-01
  0.969244901694E-01  0.102833576695E+00  0.109086474037E+00  0.115701024009E+00  0.122695701980E+00
  0.130089596200E+00  0.137902378730E+00  0.146154266665E+00  0.154865972222E+00  0.164058640095E+00
  0.173753770305E+00  0.183973124577E+00  0.194738614118E+00  0.206072166426E+00  0.217995568569E+00
  0.230530284156E+00  0.243697240997E+00  0.257516586241E+00  0.272007405559E+00  0.287187402779E+00
  0.303072536173E+00  0.319676607523E+00  0.337010799974E+00  0.355083160705E+00  0.373898024551E+00
  0.393455374893E+00  0.413750138509E+00  0.434771411633E+00  0.456501615225E+00  0.478915578504E+00
  0.501979551202E+00  0.525650146718E+00  0.549873220645E+00  0.574582691849E+00  0.599699316718E+00
  0.625129431254E+00  0.650763680582E+00  0.676475761187E+00  0.702121207897E+00  0.727536265355E+00
  0.752536892470E+00  0.776917958146E+00  0.800452697413E+00  0.822892508707E+00  0.843967185393E+00
  0.863385687164E+00  0.880837569293E+00  0.895995199059E+00  0.908516898028E+00  0.918051154975E+00
  0.924242055390E+00  0.926736067661E+00  0.925190310587E+00  0.919282398894E+00  0.908721919198E+00
  0.893263524568E+00  0.872721546869E+00  0.846985908050E+00  0.816038959780E+00  0.779972691583E+00
  0.739005518141E+00  0.693497586142E+00  0.643963232911E+00  0.591078890688E+00  0.535684376558E+00
  0.478775162286E+00  0.421482916118E+00  0.365041399621E+00  0.310734753382E+00  0.259825401115E+00
  0.213459346872E+00  0.172547656627E+00  0.137624537795E+00  0.108684977173E+00  0.851107404784E-01
  0.660841731242E-01  0.508657025665E-01  0.388041206821E-01  0.293332932528E-01  0.219671154939E-01
  0.162932416673E-01  0.119660589933E-01  0.869930823387E-02  0.625868109782E-02  0.445465271929E-02
  0.313573990448E-02  0.218231505550E-02  0.150105327056E-02  0.102004661673E-02  0.684584962370E-03
  0.453576539131E-03  0.296562799224E-03  0.191270187882E-03  0.121635108266E-03  0.762365386291E-04
  0.470724161493E-04  0.286200499610E-04  0.171265968028E-04  0.100822890208E-04  0.583605108004E-05
  0.331992809451E-05  0.185506143953E-05  0.101758376852E-05  0.547668309431E-06  0.289030914445E-06
  0.149480181423E-06  0.757108526736E-07  0.375300574677E-07  0.181947823354E-07  0.862084039039E-08
  0.398900666191E-08  0.180118655531E-08
 pseudo wavefunction
  0.443235766804E-12  0.486097647986E-12  0.533104368082E-12  0.584656742202E-12  0.641194345163E-12
  0.703199259641E-12  0.771200186776E-12  0.845776954278E-12  0.927565460483E-12  0.101726309650E-11
  0.111563469271E-11  0.122351904029E-11  0.134183604335E-11  0.147159456281E-11  0.161390101865E-11
  0.176996882410E-11  0.194112873217E-11  0.212884018260E-11  0.233470374620E-11  0.256047477252E-11
  0.280807835728E-11  0.307962575724E-11  0.337743239236E-11  0.370403758880E-11  0.406222623120E-11
  0.445505250872E-11  0.488586595734E-11  0.535834002058E-11  0.587650337208E-11  0.644477426711E-11
  0.706799821601E-11  0.775148930066E-11  0.850107548639E-11  0.932314831567E-11  0.102247174072E-10
  0.112134702254E-10  0.122978376292E-10  0.134870657605E-10  0.147912948834E-10  0.162216458477E-10
  0.177903149142E-10  0.195106777488E-10  0.213974034737E-10  0.234665797477E-10  0.257358499414E-10
  0.282245635784E-10  0.309539413234E-10  0.339472559262E-10  0.372300306627E-10  0.408302569654E-10
  0.447786330997E-10  0.491088259207E-10  0.538577579419E-10  0.590659221649E-10  0.647777273526E-10
  0.710418766927E-10  0.779117830773E-10  0.854460245415E-10  0.937088437439E-10  0.102770695748E-09
  0.112708848775E-09  0.123608043050E-09  0.135561213363E-09  0.148670281498E-09  0.163047025295E-09
  0.178814031753E-09  0.196105742299E-09  0.215069599132E-09  0.235867302428E-09  0.258676189119E-09
  0.283690744992E-09  0.311124263027E-09  0.341210662087E-09  0.374206481484E-09  0.410393068422E-09
  0.450078976974E-09  0.493602599035E-09  0.541335049706E-09  0.593683331690E-09  0.651093805693E-09
  0.714055996424E-09  0.783106766634E-09  0.858834894801E-09  0.941886095477E-09  0.103296852511E-08
  0.113285882032E-08  0.124240871999E-08  0.136255232790E-08  0.149431407744E-08  0.163881746676E-08
  0.179729463840E-08  0.197109688549E-08  0.216170617373E-08  0.237074777769E-08  0.260000413899E-08
  0.285143006465E-08  0.312716939501E-08  0.342957328362E-08  0.376122024465E-08  0.412493813907E-08
  0.452382828676E-08  0.496129191035E-08  0.544105913624E-08  0.596722079992E-08  0.654426332700E-08
  0.717710698715E-08  0.787114784728E-08  0.863230378153E-08  0.946706493049E-08  0.103825490398E-07
  0.113865621497E-07  0.124876651542E-07  0.136952467947E-07  0.150196037140E-07  0.164720282502E-07
  0.180649047204E-07  0.198118150152E-07  0.217276544036E-07  0.238287585363E-07  0.261330427300E-07
  0.286601547198E-07  0.314316421823E-07  0.344711364584E-07  0.378045540405E-07  0.414603175433E-07
  0.454695980413E-07  0.498665808396E-07  0.546887569429E-07  0.599772427081E-07  0.657771304056E-07
  0.721378726774E-07  0.791137041694E-07  0.867641039328E-07  0.951543025352E-07  0.104355838206E-06
  0.114447166752E-06  0.125514330455E-06  0.137651691628E-06  0.150962737115E-06  0.165560960563E-06
  0.181570830004E-06  0.199128848986E-06  0.218384720292E-06  0.239502622185E-06  0.262662608028E-06
  0.288062141223E-06  0.315917778556E-06  0.346467016266E-06  0.379970314601E-06  0.416713318083E-06
  0.457009290417E-06  0.501201784787E-06  0.549667572276E-06  0.602819853369E-06  0.661111779897E-06
  0.725040317414E-06  0.795150480898E-06  0.872039979876E-06  0.956364312498E-06  0.104884235197E-05
  0.115026247286E-05  0.126148926955E-05  0.138347092386E-05  0.151724728469E-05  0.166395872843E-05
  0.182485587550E-05  0.200131024567E-05  0.219482594299E-05  0.240705246948E-05  0.263979877678E-05
  0.289504867516E-05  0.317497773090E-05  0.348197179580E-05  0.381864732613E-05  0.418787366393E-05
  0.459279746972E-05  0.503686951437E-05  0.552387405751E-05  0.605796106198E-05  0.664368151772E-05
  0.728602617486E-05  0.799046801451E-05  0.876300881745E-05  0.961023022548E-05  0.105393497280E-04
  0.115582820484E-04  0.126757064490E-04  0.139011405262E-04  0.152450211170E-04  0.167187930040E-04
  0.183350061669E-04  0.201074224006E-04  0.220511322032E-04  0.241826829159E-04  0.265202191974E-04
  0.290836370148E-04  0.318947524470E-04  0.349774867207E-04  0.383580690319E-04  0.420652588567E-04
  0.461305896148E-04  0.505886357256E-04  0.554773052920E-04  0.608381608573E-04  0.667167709103E-04
  0.731630950694E-04  0.802319061491E-04  0.879832526152E-04  0.964829652645E-04  0.105803212322E-03
  0.116023107543E-03  0.127229376332E-03  0.139517085361E-03  0.152990441676E-03  0.167763667825E-03
  0.183961960171E-03  0.201722538173E-03  0.221195793167E-03  0.242546545932E-03  0.265955423189E-03
  0.291620364084E-03  0.319758268704E-03  0.350606801778E-03  0.384426365842E-03  0.421502259464E-03
  0.462147037454E-03  0.506703091499E-03  0.555545471238E-03  0.609084967532E-03  0.667771481541E-03
  0.732097705194E-03  0.802603140825E-03  0.879878489982E-03  0.964570443940E-03  0.105738691100E-02
  0.115910271851E-02  0.127056583042E-02  0.139270412439E-02  0.152653277578E-02  0.167316229915E-02
  0.183380730186E-02  0.200979600761E-02  0.220258061236E-02  0.241374853823E-02  0.264503465593E-02
  0.289833454950E-02  0.317571890196E-02  0.347944908392E-02  0.381199403114E-02  0.417604850080E-02
  0.457455279879E-02  0.501071407345E-02  0.548802927265E-02  0.601030986202E-02  0.658170840188E-02
  0.720674707841E-02  0.789034828111E-02  0.863786731220E-02  0.945512730526E-02  0.103484564180E-01
  0.113247273482E-01  0.123913992002E-01  0.135565617052E-01  0.148289817615E-01  0.162181522253E-01
  0.177343428276E-01  0.193886530375E-01  0.211930666161E-01  0.231605075222E-01  0.253048967278E-01
  0.276412093814E-01  0.301855316192E-01  0.329551161606E-01  0.359684356347E-01  0.392452323723E-01
  0.428065631465E-01  0.466748370669E-01  0.508738445131E-01  0.554287746379E-01  0.603662185724E-01
  0.657141550257E-01  0.715019144922E-01  0.777601177527E-01  0.845205837993E-01  0.918162017165E-01
  0.996807604358E-01  0.108148729653E+00  0.117254984573E+00  0.127034466555E+00  0.137521771208E+00
  0.148750655042E+00  0.160753451519E+00  0.173560387281E+00  0.187198789556E+00  0.201692176365E+00
  0.217059222257E+00  0.233312594020E+00  0.250457653333E+00  0.268491026721E+00  0.287399047726E+00
  0.307156082062E+00  0.327722753805E+00  0.349044099748E+00  0.371047689852E+00  0.393641764567E+00
  0.416713454631E+00  0.440127165650E+00  0.463723228228E+00  0.487316934018E+00  0.510698098152E+00
  0.533631307872E+00  0.555857034226E+00  0.577093796203E+00  0.597041571822E+00  0.615386644901E+00
  0.631808055097E+00  0.645985777397E+00  0.657610689727E+00  0.666396287945E+00  0.672091970249E+00
  0.674497533259E+00  0.673478296802E+00  0.668980004545E+00  0.661042339167E+00  0.649809557710E+00
  0.635536419681E+00  0.618587285136E+00  0.599426056526E+00  0.578594598390E+00  0.556677483229E+00
  0.534251485810E+00  0.511819295512E+00  0.489728546159E+00  0.468094944434E+00  0.446919803028E+00
  0.426214472385E+00  0.405989177469E+00  0.386252697779E+00  0.367012679133E+00  0.348275904372E+00
  0.330048521196E+00  0.312336225137E+00  0.295144397763E+00  0.278478199448E+00  0.262342615037E+00
  0.246742450536E+00  0.231682278732E+00  0.217166333870E+00  0.203198358181E+00  0.189781407868E+00
  0.176917631167E+00  0.164608035641E+00  0.152852257026E+00  0.141648396468E+00  0.130992829028E+00
  0.120880151771E+00  0.111303162661E+00  0.102252917646E+00  0.937188522357E-01  0.856889560659E-01
  0.781499848680E-01  0.710876917864E-01  0.644870593309E-01  0.583325143649E-01  0.526081114260E-01
  0.472976741379E-01  0.423848900924E-01
 ae wavefunction
  0.291099699018E-09  0.317532416265E-09  0.346119982806E-09  0.377057363358E-09  0.410555779986E-09
  0.446844190726E-09  0.486170893355E-09  0.528805268884E-09  0.575039674547E-09  0.625191503262E-09
  0.679605421337E-09  0.738655804579E-09  0.802749386369E-09  0.872328141769E-09  0.947872425587E-09
  0.102990438879E-08  0.111899169960E-08  0.121575159506E-08  0.132085529497E-08  0.143503281014E-08
  0.155907818101E-08  0.169385518694E-08  0.184030356736E-08  0.199944580322E-08  0.217239450882E-08
  0.236036049037E-08  0.256466153237E-08  0.278673197791E-08  0.302813317634E-08  0.329056487750E-08
  0.357587765947E-08  0.388608648503E-08  0.422338549019E-08  0.459016411891E-08  0.498902472729E-08
  0.542280179327E-08  0.589458287973E-08  0.640773151341E-08  0.696591215579E-08  0.757311746071E-08
  0.823369802962E-08  0.895239489619E-08  0.973437499338E-08  0.105852698799E-07  0.115112180287E-07
  0.125189110080E-07  0.136156439183E-07  0.148093704801E-07  0.161087632057E-07  0.175232791295E-07
  0.190632316144E-07  0.207398688019E-07  0.225654593245E-07  0.245533859615E-07  0.267182479764E-07
  0.290759729523E-07  0.316439390091E-07  0.344411083773E-07  0.374881733892E-07  0.408077160524E-07
  0.444243824756E-07  0.483650735407E-07  0.526591533423E-07  0.573386770624E-07  0.624386401018E-07
  0.679972504625E-07  0.740562265623E-07  0.806611228728E-07  0.878616859833E-07  0.957122439590E-07
  0.104272132108E-06  0.113606158587E-06  0.123785113576E-06  0.134886326119E-06  0.146994273121E-06
  0.160201245356E-06  0.174608075913E-06  0.190324936860E-06  0.207472210600E-06  0.226181442896E-06
  0.246596385229E-06  0.268874134924E-06  0.293186382137E-06  0.319720773803E-06  0.348682405502E-06
  0.380295453191E-06  0.414804957987E-06  0.452478778301E-06  0.493609725037E-06  0.538517896938E-06
  0.587553234934E-06  0.641098315853E-06  0.699571408009E-06  0.763429813079E-06  0.833173521053E-06
  0.909349207483E-06  0.992554605037E-06  0.108344328422E-05  0.118272988142E-05  0.129119581606E-05
  0.140969554218E-05  0.153916338449E-05  0.168062101292E-05  0.183518561517E-05  0.200407883201E-05
  0.218863652607E-05  0.239031946130E-05  0.261072497742E-05  0.285159975142E-05  0.311485374647E-05
  0.340257545773E-05  0.371704857477E-05  0.406077019085E-05  0.443647070135E-05  0.484713554646E-05
  0.529602896715E-05  0.578671995901E-05  0.632311062464E-05  0.690946714374E-05  0.755045359966E-05
  0.825116892195E-05  0.901718722869E-05  0.985460187612E-05  0.107700735520E-04  0.117708827776E-04
  0.128649872161E-04  0.140610842195E-04  0.153686790860E-04  0.167981595372E-04  0.183608769735E-04
  0.200692351106E-04  0.219367866553E-04  0.239783387328E-04  0.262100678407E-04  0.286496451709E-04
  0.313163732114E-04  0.342313346186E-04  0.374175544322E-04  0.409001767986E-04  0.447066574616E-04
  0.488669733871E-04  0.534138510007E-04  0.583830146385E-04  0.638134569418E-04  0.697477330688E-04
  0.762322807447E-04  0.833177683381E-04  0.910594733201E-04  0.995176936552E-04  0.108758194867E-03
  0.118852695740E-03  0.129879395845E-03  0.141923548319E-03  0.155078081591E-03  0.169444274020E-03
  0.185132485720E-03  0.202262952124E-03  0.220966644222E-03  0.241386200713E-03  0.263676937710E-03
  0.288007942021E-03  0.314563254449E-03  0.343543149972E-03  0.375165522151E-03  0.409667379556E-03
  0.447306462537E-03  0.488362989166E-03  0.533141539708E-03  0.581973089578E-03  0.635217201280E-03
  0.693264386434E-03  0.756538649623E-03  0.825500226374E-03  0.900648528255E-03  0.982525308676E-03
  0.107171806362E-02  0.116886368219E-02  0.127465236233E-02  0.138983180797E-02  0.151521172402E-02
  0.165166862644E-02  0.180015098508E-02  0.196168471719E-02  0.213737905011E-02  0.232843277161E-02
  0.253614088686E-02  0.276190170056E-02  0.300722434312E-02  0.327373675898E-02  0.356319417512E-02
  0.387748806668E-02  0.421865563593E-02  0.458888981943E-02  0.499054983655E-02  0.542617229078E-02
  0.589848283277E-02  0.641040839125E-02  0.696508997491E-02  0.756589604430E-02  0.821643644855E-02
  0.892057691691E-02  0.968245408919E-02  0.105064910629E-01  0.113974134282E-01  0.123602657527E-01
  0.134004284711E-01  0.145236351236E-01  0.157359898762E-01  0.170439852463E-01  0.184545199436E-01
  0.199749167211E-01  0.216129401218E-01  0.233768139866E-01  0.252752385783E-01  0.273174071577E-01
  0.295130218348E-01  0.318723084991E-01  0.344060306199E-01  0.371255016854E-01  0.400425960294E-01
  0.431697577666E-01  0.465200075182E-01  0.501069465545E-01  0.539447579122E-01  0.580482039484E-01
  0.624326196881E-01  0.671139012241E-01  0.721084883466E-01  0.774333405755E-01  0.831059058332E-01
  0.891440811691E-01  0.955661651795E-01  0.102390802044E+00  0.109636917351E+00  0.117323646040E+00
  0.125470252817E+00  0.134096045230E+00  0.143220279228E+00  0.152862056664E+00  0.163040213868E+00
  0.173773200409E+00  0.185078947329E+00  0.196974724475E+00  0.209476986858E+00  0.222601210179E+00
  0.236361715760E+00  0.250771485189E+00  0.265841965057E+00  0.281582862275E+00  0.298001930692E+00
  0.315104749953E+00  0.332894497881E+00  0.351371717986E+00  0.370534084116E+00  0.390376164659E+00
  0.410889189101E+00  0.432060820190E+00  0.453874935331E+00  0.476311421146E+00  0.499345985412E+00
  0.522949990647E+00  0.547090313602E+00  0.571729234664E+00  0.596824360846E+00  0.622328585748E+00
  0.648190089877E+00  0.674352385470E+00  0.700754412081E+00  0.727330693091E+00  0.754011569116E+00
  0.780723530741E+00  0.807389675827E+00  0.833930307327E+00  0.860263652096E+00  0.886306604968E+00
  0.911975288631E+00  0.937185114239E+00  0.961850042699E+00  0.985881005726E+00  0.100918397688E+01
  0.103165875863E+01  0.105319964914E+01  0.107369829269E+01  0.109304762910E+01  0.111114529497E+01
  0.112789563265E+01  0.114321055666E+01  0.115700993093E+01  0.116922192492E+01  0.117978351970E+01
  0.118864114502E+01  0.119575134863E+01  0.120108138711E+01  0.120460965189E+01  0.120632588256E+01
  0.120623115359E+01  0.120433764724E+01  0.120066823858E+01  0.119525592434E+01  0.118814312837E+01
  0.117938091487E+01  0.116902813676E+01  0.115715054522E+01  0.114381988142E+01  0.112911297064E+01
  0.111311083243E+01  0.109589782076E+01  0.107756080211E+01  0.105818837715E+01  0.103787015045E+01
  0.101669604788E+01  0.994755681915E+00  0.972137764628E+00  0.948929565823E+00  0.925216419086E+00
  0.901081272653E+00  0.876604291624E+00  0.851862511506E+00  0.826929547170E+00  0.801875358416E+00
  0.776766071502E+00  0.751663853155E+00  0.726626830507E+00  0.701709047964E+00  0.676960452238E+00
  0.652426897561E+00  0.628150168245E+00  0.604168020675E+00  0.580514252501E+00  0.557218810829E+00
  0.534307950418E+00  0.511804449481E+00  0.489727882868E+00  0.468094944434E+00  0.446919803028E+00
  0.426214472385E+00  0.405989177469E+00  0.386252697779E+00  0.367012679133E+00  0.348275904372E+00
  0.330048521196E+00  0.312336225137E+00  0.295144397763E+00  0.278478199448E+00  0.262342615037E+00
  0.246742450536E+00  0.231682278732E+00  0.217166333870E+00  0.203198358181E+00  0.189781407868E+00
  0.176917631167E+00  0.164608035641E+00  0.152852257026E+00  0.141648396468E+00  0.130992829028E+00
  0.120880151771E+00  0.111303162661E+00  0.102252917646E+00  0.937188522357E-01  0.856889560659E-01
  0.781499848680E-01  0.710876917864E-01  0.644870593309E-01  0.583325143649E-01  0.526081114260E-01
  0.472976741379E-01  0.423848900924E-01
 pseudo wavefunction
  0.433767388061E-12  0.475713656035E-12  0.521716221097E-12  0.572167336166E-12  0.627497185886E-12
  0.688177554710E-12  0.754725849692E-12  0.827709512295E-12  0.907750856828E-12  0.995532376771E-12
  0.109180256424E-11  0.119738229219E-11  0.131317181381E-11  0.144015843878E-11  0.157942495178E-11
  0.173215884520E-11  0.189966244456E-11  0.208336401314E-11  0.228482993044E-11  0.250577804833E-11
  0.274809233875E-11  0.301383895790E-11  0.330528386387E-11  0.362491213788E-11  0.397544917403E-11
  0.435988391805E-11  0.478149435333E-11  0.524387545150E-11  0.575096982590E-11  0.630710134929E-11
  0.691701202250E-11  0.758590240829E-11  0.831947597535E-11  0.912398773038E-11  0.100062975531E-10
  0.109739286885E-10  0.120351318964E-10  0.131989558030E-10  0.144753240565E-10  0.158751199441E-10
  0.174102791906E-10  0.190938917318E-10  0.209403133292E-10  0.229652879779E-10  0.251860821520E-10
  0.276216320317E-10  0.302927049674E-10  0.332220765579E-10  0.364347248526E-10  0.399580433330E-10
  0.438220744901E-10  0.480597659901E-10  0.527072516103E-10  0.578041593437E-10  0.633939492966E-10
  0.695242842628E-10  0.762474361320E-10  0.836207316000E-10  0.917070409788E-10  0.100575314276E-09
  0.110301169117E-09  0.120967535511E-09  0.132665362985E-09  0.145494396077E-09  0.159564024840E-09
  0.174994217581E-09  0.191916543801E-09  0.210475296053E-09  0.230828720291E-09  0.253150365193E-09
  0.277630561962E-09  0.304478047236E-09  0.333921742930E-09  0.366212708193E-09  0.401626280124E-09
  0.440464421502E-09  0.483058295540E-09  0.529771089626E-09  0.581001112129E-09  0.637185188663E-09
  0.698802386782E-09  0.766378100862E-09  0.840488531990E-09  0.921765601073E-09  0.101090233705E-08
  0.110865878617E-08  0.121586849264E-08  0.133344560610E-08  0.146239267622E-08  0.160380920123E-08
  0.175890100293E-08  0.192899050845E-08  0.211552802612E-08  0.232010411185E-08  0.254446313124E-08
  0.279051813330E-08  0.306036716234E-08  0.335631114733E-08  0.368087352115E-08  0.403682173701E-08
  0.442719086561E-08  0.485530947406E-08  0.532482800739E-08  0.583974991455E-08  0.640446578426E-08
  0.702379078190E-08  0.770300570650E-08  0.844790201792E-08  0.926483121827E-08  0.101607590084E-07
  0.111433246813E-07  0.122209062589E-07  0.134026919278E-07  0.146987583819E-07  0.161201567419E-07
  0.176790067823E-07  0.193886002701E-07  0.212635142967E-07  0.233197355679E-07  0.255747967137E-07
  0.280479257777E-07  0.307602101625E-07  0.337347764282E-07  0.369969874760E-07  0.405746587998E-07
  0.444982956481E-07  0.488013531176E-07  0.535205213984E-07  0.586960385988E-07  0.643720338204E-07
  0.705969034051E-07  0.774237235634E-07  0.849107029006E-07  0.931216786987E-07  0.102126661184E-06
  0.112002430424E-06  0.122833190928E-06  0.134711289558E-06  0.147738002834E-06  0.162024400378E-06
  0.177692291828E-06  0.194875265319E-06  0.213719826358E-06  0.234386646811E-06  0.257051934654E-06
  0.281908936141E-06  0.309169583208E-06  0.339066300145E-06  0.371853984932E-06  0.407812182116E-06
  0.447247465750E-06  0.490496052703E-06  0.537926668582E-06  0.589943690712E-06  0.646990594922E-06
  0.709553735512E-06  0.778166490600E-06  0.853413808139E-06  0.935937191342E-06  0.102644016595E-05
  0.112569427590E-05  0.123454565849E-05  0.135392225491E-05  0.148484171766E-05  0.162842008204E-05
  0.178588127560E-05  0.195856754642E-05  0.214795089900E-05  0.235564563500E-05  0.258342210558E-05
  0.283322179220E-05  0.310717384429E-05  0.340761321420E-05  0.373710054376E-05  0.409844397142E-05
  0.449472304521E-05  0.492931494479E-05  0.540592323524E-05  0.592860939674E-05  0.650182739791E-05
  0.713046160612E-05  0.781986835647E-05  0.857592153203E-05  0.940506254177E-05  0.103143551199E-04
  0.113115454107E-04  0.124051278481E-04  0.136044173869E-04  0.149196286983E-04  0.163619629978E-04
  0.179437032407E-04  0.196783184888E-04  0.215805783302E-04  0.236666783164E-04  0.259543774764E-04
  0.284631490644E-04  0.312143458125E-04  0.342313810764E-04  0.375399273996E-04  0.411681341614E-04
  0.451468661357E-04  0.495099649606E-04  0.542945357068E-04  0.595412609423E-04  0.652947449158E-04
  0.716038907293E-04  0.785223136426E-04  0.861087939451E-04  0.944277731567E-04  0.103549897669E-03
  0.113552614325E-03  0.124520822858E-03  0.136547590557E-03  0.149734935046E-03  0.164194681586E-03
  0.180049401926E-03  0.197433442341E-03  0.216494049251E-03  0.237392601518E-03  0.260305959405E-03
  0.285427941047E-03  0.312970938290E-03  0.343167684805E-03  0.376273190546E-03  0.412566857874E-03
  0.452354796023E-03  0.495972352045E-03  0.543786877962E-03  0.596200755561E-03  0.653654702101E-03
  0.716631382192E-03  0.785659353234E-03  0.861317374080E-03  0.944239109049E-03  0.103511826201E-02
  0.113471417807E-02  0.124385795331E-02  0.136345909627E-02  0.149451278806E-02  0.163810779153E-02
  0.179543506374E-02  0.196779712957E-02  0.215661827841E-02  0.236345565007E-02  0.259001128006E-02
  0.283814517880E-02  0.310988952352E-02  0.340746404595E-02  0.373329270292E-02  0.409002172079E-02
  0.448053910854E-02  0.490799573711E-02  0.537582808517E-02  0.588778275339E-02  0.644794284942E-02
  0.706075634549E-02  0.773106650795E-02  0.846414449354E-02  0.926572420035E-02  0.101420394514E-01
  0.110998635753E-01  0.121465514297E-01  0.132900838917E-01  0.145391148088E-01  0.159030203674E-01
  0.173919507933E-01  0.190168842422E-01  0.207896826727E-01  0.227231494181E-01  0.248310880781E-01
  0.271283622408E-01  0.296309554193E-01  0.323560304343E-01  0.353219872994E-01  0.385485184657E-01
  0.420566600506E-01  0.458688374112E-01  0.500089031274E-01  0.545021651189E-01  0.593754022498E-01
  0.646568643531E-01  0.703762531519E-01  0.765646800511E-01  0.832545962382E-01  0.904796899541E-01
  0.982747451993E-01  0.106675455521E+00  0.115718185914E+00  0.125439675267E+00  0.135876671256E+00
  0.147065489102E+00  0.159041485311E+00  0.171838437368E+00  0.185487820469E+00  0.200017972896E+00
  0.215453142521E+00  0.231812408460E+00  0.249108474137E+00  0.267346331059E+00  0.286521796823E+00
  0.306619936215E+00  0.327613381111E+00  0.349460573375E+00  0.372103965179E+00  0.395468223490E+00
  0.419458499654E+00  0.443958841385E+00  0.468830842547E+00  0.493912645750E+00  0.519018433244E+00
  0.543938561800E+00  0.568440515933E+00  0.592270868726E+00  0.615158448198E+00  0.636818905975E+00
  0.656960869975E+00  0.675293828643E+00  0.691537835281E+00  0.705435030787E+00  0.716762855044E+00
  0.725348645258E+00  0.731085098905E+00  0.733945807605E+00  0.733999748788E+00  0.731423263598E+00
  0.726507671104E+00  0.719660302020E+00  0.711396427340E+00  0.702319374769E+00  0.693086155590E+00
  0.684356273703E+00  0.676722180401E+00  0.670621203352E+00  0.666251312465E+00  0.663718994316E+00
  0.663169246163E+00  0.664761183794E+00  0.000000000000E+00  0.000000000000E+00  0.000000000000E+00
  0.000000000000E+00  0.000000000000E+00  0.000000000000E+00  0.000000000000E+00  0.000000000000E+00
  0.000000000000E+00  0.000000000000E+00  0.000000000000E+00  0.000000000000E+00  0.000000000000E+00
  0.000000000000E+00  0.000000000000E+00  0.000000000000E+00  0.000000000000E+00  0.000000000000E+00
  0.000000000000E+00  0.000000000000E+00  0.000000000000E+00  0.000000000000E+00  0.000000000000E+00
  0.000000000000E+00  0.000000000000E+00  0.000000000000E+00  0.000000000000E+00  0.000000000000E+00
  0.000000000000E+00  0.000000000000E+00
 ae wavefunction
  0.278836522648E-09  0.304155704751E-09  0.331538958582E-09  0.361173035542E-09  0.393260259505E-09
  0.428019943153E-09  0.465689924176E-09  0.506528235322E-09  0.550814917640E-09  0.598853993179E-09
  0.650975608427E-09  0.707538367792E-09  0.768931870125E-09  0.835579471318E-09  0.907941290186E-09
  0.986517480939E-09  0.107185179753E-08  0.116453547455E-08  0.126521145517E-08  0.137457899691E-08
  0.149339868949E-08  0.162249792367E-08  0.176277685028E-08  0.191521487601E-08  0.208087774381E-08
  0.226092525200E-08  0.245661967049E-08  0.266933491747E-08  0.290056656700E-08  0.315194276316E-08
  0.342523612431E-08  0.372237672842E-08  0.404546627861E-08  0.439679355819E-08  0.477885129316E-08
  0.519435455273E-08  0.564626082924E-08  0.613779195331E-08  0.667245801273E-08  0.725408346177E-08
  0.788683562300E-08  0.857525580330E-08  0.932429326689E-08  0.101393423303E-07  0.110262828693E-07
  0.119915245547E-07  0.130420551644E-07  0.141854933500E-07  0.154301462745E-07  0.167850725732E-07
  0.182601511351E-07  0.198661562477E-07  0.216148396995E-07  0.235190204893E-07  0.255926828532E-07
  0.278510833882E-07  0.303108681209E-07  0.329902004540E-07  0.359089010077E-07  0.390886004702E-07
  0.425529066760E-07  0.463275872451E-07  0.504407692415E-07  0.549231574485E-07  0.598082730042E-07
  0.651327143102E-07  0.709364422986E-07  0.772630923532E-07  0.841603153725E-07  0.916801507254E-07
  0.998794340824E-07  0.108820243405E-06  0.118570386671E-06  0.129203935261E-06  0.140801807291E-06
  0.153452405571E-06  0.167252315362E-06  0.182307067477E-06  0.198731972928E-06  0.216653035806E-06
  0.236207951727E-06  0.257547199924E-06  0.280835237704E-06  0.306251806941E-06  0.333993363084E-06
  0.364274638157E-06  0.397330350349E-06  0.433417073917E-06  0.472815284423E-06  0.515831595710E-06
  0.562801206637E-06  0.614090577098E-06  0.670100354891E-06  0.731268576805E-06  0.798074169603E-06
  0.871040778875E-06  0.950740956434E-06  0.103780073963E-05  0.113290465918E-05  0.123680121541E-05
  0.135030886659E-05  0.147432257686E-05  0.160982097602E-05  0.175787418773E-05  0.191965238843E-05
  0.209643516456E-05  0.228962174216E-05  0.250074216950E-05  0.273146954100E-05  0.298363335845E-05
  0.325923413466E-05  0.356045935386E-05  0.388970091394E-05  0.424957418659E-05  0.464293884409E-05
  0.507292161446E-05  0.554294114202E-05  0.605673514529E-05  0.661839008260E-05  0.723237355346E-05
  0.790356968500E-05  0.863731777472E-05  0.943945448459E-05  0.103163599084E-04  0.112750078618E-04
  0.123230207771E-04  0.134687296148E-04  0.147212392458E-04  0.160904997912E-04  0.175873844547E-04
  0.192237744256E-04  0.210126514816E-04  0.229681989751E-04  0.251059119452E-04  0.274427171600E-04
  0.299971039641E-04  0.327892668800E-04  0.358412609897E-04  0.391771712138E-04  0.428232966936E-04
  0.468083515861E-04  0.511636836869E-04  0.559235124159E-04  0.611251878222E-04  0.668094724024E-04
  0.730208476702E-04  0.798078475706E-04  0.872234209982E-04  0.953253258592E-04  0.104176557307E-03
  0.113845812986E-03  0.124407998339E-03  0.135944775256E-03  0.148545157624E-03  0.162306157542E-03
  0.177333486326E-03  0.193742314652E-03  0.211658096561E-03  0.231217462357E-03  0.252569185783E-03
  0.275875231267E-03  0.301311887383E-03  0.329070993127E-03  0.359361264018E-03  0.392409725518E-03
  0.428463261721E-03  0.467790287776E-03  0.510682555015E-03  0.557457098312E-03  0.608458335735E-03
  0.664060331136E-03  0.724669230897E-03  0.790725886658E-03  0.862708676441E-03  0.941136537194E-03
  0.102657222239E-02  0.111962579893E-02  0.122095839810E-02  0.133128623605E-02  0.145138491972E-02
  0.158209405448E-02  0.172432217068E-02  0.187905198601E-02  0.204734602166E-02  0.223035258983E-02
  0.242931217074E-02  0.264556419709E-02  0.288055426381E-02  0.313584178074E-02  0.341310808525E-02
  0.371416503129E-02  0.404096407027E-02  0.439560583800E-02  0.478035026050E-02  0.519762718947E-02
  0.565004757617E-02  0.614041518949E-02  0.667173888136E-02  0.724724539844E-02  0.787039273555E-02
  0.854488402076E-02  0.927468191751E-02  0.100640235223E-01  0.109174357302E-01  0.118397510327E-01
  0.128361237037E-01  0.139120463209E-01  0.150733665589E-01  0.163263041802E-01  0.176774681375E-01
  0.191338736893E-01  0.207029594161E-01  0.223926040108E-01  0.242111427047E-01  0.261673831706E-01
  0.282706207359E-01  0.305306527175E-01  0.329577916777E-01  0.355628773823E-01  0.383572872191E-01
  0.413529448115E-01  0.445623265212E-01  0.479984654859E-01  0.516749527669E-01  0.556059350936E-01
  0.598061085896E-01  0.642907077707E-01  0.690754890306E-01  0.741767078200E-01  0.796110887944E-01
  0.853957883650E-01  0.915483493153E-01  0.980866474101E-01  0.105028830161E+00  0.112393248069E+00
  0.120198378692E+00  0.128462743700E+00  0.137204818783E+00  0.146442935863E+00  0.156195176812E+00
  0.166479257805E+00  0.177312403641E+00  0.188711211678E+00  0.200691505312E+00  0.213268177144E+00
  0.226455022061E+00  0.240264560545E+00  0.254707852553E+00  0.269794302473E+00  0.285531455825E+00
  0.301924788620E+00  0.318977490618E+00  0.336690244020E+00  0.355060999528E+00  0.374084752090E+00
  0.393753319019E+00  0.414055123610E+00  0.434974987717E+00  0.456493937087E+00  0.478589023466E+00
  0.501233167592E+00  0.524395027155E+00  0.548038893542E+00  0.572124620933E+00  0.596607590959E+00
  0.621438716188E+00  0.646564486411E+00  0.671927063732E+00  0.697464436211E+00  0.723110645385E+00
  0.748796109193E+00  0.774448064562E+00  0.799991144969E+00  0.825348074362E+00  0.850440385688E+00
  0.875188962992E+00  0.899514104795E+00  0.923334820302E+00  0.946567318561E+00  0.969123160377E+00
  0.990908096074E+00  0.101182270706E+01  0.103176514489E+01  0.105063492783E+01  0.106833621354E+01
  0.108477973633E+01  0.109988364779E+01  0.111357388805E+01  0.112578453775E+01  0.113645831532E+01
  0.114554720209E+01  0.115301310062E+01  0.115882842002E+01  0.116297650552E+01  0.116545186606E+01
  0.116626018663E+01  0.116541813777E+01  0.116295300680E+01  0.115890218178E+01  0.115331251959E+01
  0.114623962819E+01  0.113774708994E+01  0.112790565090E+01  0.111679239696E+01  0.110448993648E+01
  0.109108560311E+01  0.107667069289E+01  0.106133974357E+01  0.104518986276E+01  0.102832010935E+01
  0.101083092921E+01  0.992823645871E+00  0.974400006969E+00  0.955661785001E+00  0.936710436198E+00
  0.917646815667E+00  0.898570956764E+00  0.879581916424E+00  0.860777692608E+00  0.842255217621E+00
  0.824110429638E+00  0.806438422359E+00  0.789333669964E+00  0.772890322277E+00  0.757202565500E+00
  0.742365044858E+00  0.728473351482E+00  0.715624582099E+00  0.703917988211E+00  0.693455739004E+00
  0.684343825668E+00  0.676693136238E+00  0.670620726937E+00  0.666251312465E+00  0.663718994316E+00
  0.663169246163E+00  0.664761183794E+00  0.000000000000E+00  0.000000000000E+00  0.000000000000E+00
  0.000000000000E+00  0.000000000000E+00  0.000000000000E+00  0.000000000000E+00  0.000000000000E+00
  0.000000000000E+00  0.000000000000E+00  0.000000000000E+00  0.000000000000E+00  0.000000000000E+00
  0.000000000000E+00  0.000000000000E+00  0.000000000000E+00  0.000000000000E+00  0.000000000000E+00
  0.000000000000E+00  0.000000000000E+00  0.000000000000E+00  0.000000000000E+00  0.000000000000E+00
  0.000000000000E+00  0.000000000000E+00  0.000000000000E+00  0.000000000000E+00  0.000000000000E+00
  0.000000000000E+00  0.000000000000E+00
 pseudo wavefunction
  0.277234423727E-04  0.285897305361E-04  0.294830880358E-04  0.304043607209E-04  0.313544208709E-04
  0.323341680222E-04  0.333445298193E-04  0.343864628931E-04  0.354609537672E-04  0.365690197911E-04
  0.377117101045E-04  0.388901066295E-04  0.401053250962E-04  0.413585160978E-04  0.426508661813E-04
  0.439835989698E-04  0.453579763219E-04  0.467752995260E-04  0.482369105325E-04  0.497441932245E-04
  0.512985747279E-04  0.529015267627E-04  0.545545670365E-04  0.562592606816E-04  0.580172217365E-04
  0.598301146748E-04  0.616996559803E-04  0.636276157728E-04  0.656158194841E-04  0.676661495860E-04
  0.697805473729E-04  0.719610147998E-04  0.742096163779E-04  0.765284811292E-04  0.789198046021E-04
  0.813858509509E-04  0.839289550786E-04  0.865515248484E-04  0.892560433633E-04  0.920450713169E-04
  0.949212494182E-04  0.978873008917E-04  0.100946034056E-03  0.104100344983E-03  0.107353220240E-03
  0.110707739715E-03  0.114167079537E-03  0.117734515082E-03  0.121413424070E-03  0.125207289769E-03
  0.129119704291E-03  0.133154371991E-03  0.137315112976E-03  0.141605866724E-03  0.146030695809E-03
  0.150593789754E-03  0.155299468991E-03  0.160152188957E-03  0.165156544310E-03  0.170317273280E-03
  0.175639262155E-03  0.181127549907E-03  0.186787332965E-03  0.192623970133E-03  0.198642987666E-03
  0.204850084499E-03  0.211251137646E-03  0.217852207765E-03  0.224659544893E-03  0.231679594368E-03
  0.238919002927E-03  0.246384625005E-03  0.254083529219E-03  0.262023005065E-03  0.270210569820E-03
  0.278653975656E-03  0.287361216985E-03  0.296340538025E-03  0.305600440606E-03  0.315149692223E-03
  0.324997334333E-03  0.335152690922E-03  0.345625377326E-03  0.356425309342E-03  0.367562712612E-03
  0.379048132310E-03  0.390892443121E-03  0.403106859543E-03  0.415702946503E-03  0.428692630308E-03
  0.442088209940E-03  0.455902368697E-03  0.470148186205E-03  0.484839150805E-03  0.499989172323E-03
  0.515612595240E-03  0.531724212275E-03  0.548339278397E-03  0.565473525262E-03  0.583143176118E-03
  0.601364961160E-03  0.620156133377E-03  0.639534484888E-03  0.659518363789E-03  0.680126691528E-03
  0.701378980828E-03  0.723295354154E-03  0.745896562780E-03  0.769204006434E-03  0.793239753564E-03
  0.818026562237E-03  0.843587901694E-03  0.869947974573E-03  0.897131739832E-03  0.925164936385E-03
  0.954074107481E-03  0.983886625840E-03  0.101463071958E-02  0.104633549896E-02  0.107903098392E-02
  0.111274813257E-02  0.114751887047E-02  0.118337612087E-02  0.122035383593E-02  0.125848702884E-02
  0.129781180703E-02  0.133836540633E-02  0.138018622629E-02  0.142331386653E-02  0.146778916427E-02
  0.151365423301E-02  0.156095250246E-02  0.160972875965E-02  0.166002919141E-02  0.171190142811E-02
  0.176539458883E-02  0.182055932788E-02  0.187744788283E-02  0.193611412401E-02  0.199661360559E-02
  0.205900361827E-02  0.212334324352E-02  0.218969340969E-02  0.225811694972E-02  0.232867866077E-02
  0.240144536564E-02  0.247648597619E-02  0.255387155868E-02  0.263367540123E-02  0.271597308334E-02
  0.280084254761E-02  0.288836417376E-02  0.297862085489E-02  0.307169807621E-02  0.316768399622E-02
  0.326666953044E-02  0.336874843779E-02  0.347401740967E-02  0.358257616186E-02  0.369452752933E-02
  0.380997756400E-02  0.392903563565E-02  0.405181453596E-02  0.417843058584E-02  0.430900374621E-02
  0.444365773223E-02  0.458252013114E-02  0.472572252393E-02  0.487340061075E-02  0.502569434037E-02
  0.518274804375E-02  0.534471057186E-02  0.551173543789E-02  0.568398096396E-02  0.586161043261E-02
  0.604479224303E-02  0.623370007238E-02  0.642851304221E-02  0.662941589031E-02  0.683659914801E-02
  0.705025932329E-02  0.727059908971E-02  0.749782748152E-02  0.773216009511E-02  0.797381929696E-02
  0.822303443841E-02  0.848004207745E-02  0.874508620777E-02  0.901841849533E-02  0.930029852277E-02
  0.959099404185E-02  0.989078123430E-02  0.101999449814E-01  0.105187791425E-01  0.108475868428E-01
  0.111866807714E-01  0.115363834882E-01  0.118970277429E-01  0.122689568035E-01  0.126525247969E-01
  0.130480970606E-01  0.134560505076E-01  0.138767740030E-01  0.143106687545E-01  0.147581487165E-01
  0.152196410087E-01  0.156955863496E-01  0.161864395058E-01  0.166926697574E-01  0.172147613811E-01
  0.177532141505E-01  0.183085438555E-01  0.188812828413E-01  0.194719805677E-01  0.200812041903E-01
  0.207095391636E-01  0.213575898687E-01  0.220259802652E-01  0.227153545692E-01  0.234263779598E-01
  0.241597373132E-01  0.249161419689E-01  0.256963245264E-01  0.265010416777E-01  0.273310750744E-01
  0.281872322336E-01  0.290703474835E-01  0.299812829518E-01  0.309209295991E-01  0.318902083007E-01
  0.328900709779E-01  0.339215017848E-01  0.349855183509E-01  0.360831730860E-01  0.372155545490E-01
  0.383837888865E-01  0.395890413442E-01  0.408325178579E-01  0.421154667272E-01  0.434391803800E-01
  0.448049972307E-01  0.462143036424E-01  0.476685359966E-01  0.491691828808E-01  0.507177874003E-01
  0.523159496234E-01  0.539653291696E-01  0.556676479513E-01  0.574246930777E-01  0.592383199354E-01
  0.611104554551E-01  0.630431015794E-01  0.650383389446E-01  0.670983307918E-01  0.692253271226E-01
  0.714216691164E-01  0.736897938266E-01  0.760322391741E-01  0.784516492570E-01  0.809507799981E-01
  0.835325051487E-01  0.861998226730E-01  0.889558615326E-01  0.918038888958E-01  0.947473177931E-01
  0.977897152413E-01  0.100934810859E+00  0.104186505996E+00  0.107548883387E+00  0.111026217367E+00
  0.114622984639E+00  0.118343875619E+00  0.122193806366E+00  0.126177931081E+00  0.130301655189E+00
  0.134570648957E+00  0.138990861644E+00  0.143568536122E+00  0.148310223903E+00  0.153222800493E+00
  0.158313480964E+00  0.163589835596E+00  0.169059805407E+00  0.174731717370E+00  0.180614299029E+00
  0.186716692197E+00  0.193048465334E+00  0.199619624153E+00  0.206440619864E+00  0.213522354420E+00
  0.220876181975E+00  0.228513905638E+00  0.236447768470E+00  0.244690437490E+00  0.253254979267E+00
  0.262154825476E+00  0.271403726547E+00  0.281015691301E+00  0.291004910178E+00  0.301385659366E+00
  0.312172182826E+00  0.323378548887E+00  0.335018477736E+00  0.347105135779E+00  0.359650892559E+00
  0.372667035559E+00  0.386163438007E+00  0.400148174575E+00  0.414627079799E+00  0.429603244062E+00
  0.445076442239E+00  0.461042490548E+00  0.477492527917E+00  0.494412219332E+00  0.511780880227E+00
  0.529570523149E+00  0.547744830761E+00  0.566258062869E+00  0.585053909653E+00  0.604064308803E+00
  0.623208250894E+00  0.642390605119E+00  0.661501006536E+00  0.680412856165E+00  0.698982496551E+00
  0.717048637463E+00  0.734432118886E+00  0.750936110674E+00  0.766346859375E+00  0.780435101494E+00
  0.792958267354E+00  0.803663598627E+00  0.812292293287E+00  0.818598336890E+00  0.822510811678E+00
  0.824036519992E+00  0.823198566868E+00  0.820031586022E+00  0.814581967487E+00  0.806908032107E+00
  0.797080130035E+00  0.785180639432E+00  0.771303843825E+00  0.755555665695E+00  0.738053229998E+00
  0.718924230948E+00  0.698306074238E+00  0.676344773723E+00  0.653193591678E+00  0.629011430799E+00
  0.603961016083E+00  0.578206883258E+00  0.551913352807E+00  0.525242448722E+00  0.498351962961E+00
  0.471393714586E+00  0.444512084697E+00  0.417842874923E+00  0.391512508219E+00  0.365637560919E+00
  0.340324587703E+00  0.315670179027E+00  0.291761175434E+00  0.268674956809E+00  0.246479728198E+00
  0.225234737592E+00  0.204990383917E+00
 ae wavefunction
 -0.900625052398E-03 -0.928182849463E-03 -0.956581738726E-03 -0.985847258406E-03 -0.101600571407E-02
 -0.104708420112E-02 -0.107911062808E-02 -0.111211374032E-02 -0.114612314464E-02 -0.118116933441E-02
 -0.121728371544E-02 -0.125449863254E-02 -0.129284739683E-02 -0.133236431380E-02 -0.137308471207E-02
 -0.141504497298E-02 -0.145828256096E-02 -0.150283605466E-02 -0.154874517901E-02 -0.159605083799E-02
 -0.164479514837E-02 -0.169502147426E-02 -0.174677446257E-02 -0.180010007942E-02 -0.185504564740E-02
 -0.191165988386E-02 -0.196999294011E-02 -0.203009644161E-02 -0.209202352915E-02 -0.215582890108E-02
 -0.222156885652E-02 -0.228930133964E-02 -0.235908598497E-02 -0.243098416384E-02 -0.250505903185E-02
 -0.258137557747E-02 -0.266000067172E-02 -0.274100311901E-02 -0.282445370909E-02 -0.291042527014E-02
 -0.299899272298E-02 -0.309023313653E-02 -0.318422578428E-02 -0.328105220204E-02 -0.338079624681E-02
 -0.348354415674E-02 -0.358938461239E-02 -0.369840879896E-02 -0.381071046981E-02 -0.392638601099E-02
 -0.404553450692E-02 -0.416825780721E-02 -0.429466059444E-02 -0.442485045302E-02 -0.455893793913E-02
 -0.469703665148E-02 -0.483926330315E-02 -0.498573779417E-02 -0.513658328505E-02 -0.529192627100E-02
 -0.545189665685E-02 -0.561662783265E-02 -0.578625674978E-02 -0.596092399750E-02 -0.614077387986E-02
 -0.632595449294E-02 -0.651661780207E-02 -0.671291971921E-02 -0.691502018005E-02 -0.712308322090E-02
 -0.733727705510E-02 -0.755777414876E-02 -0.778475129569E-02 -0.801838969124E-02 -0.825887500490E-02
 -0.850639745135E-02 -0.876115185967E-02 -0.902333774053E-02 -0.929315935095E-02 -0.957082575629E-02
 -0.985655088926E-02 -0.101505536053E-01 -0.104530577342E-01 -0.107642921274E-01 -0.110844907004E-01
 -0.114138924700E-01 -0.117527415853E-01 -0.121012873531E-01 -0.124597842553E-01 -0.128284919596E-01
 -0.132076753207E-01 -0.135976043732E-01 -0.139985543147E-01 -0.144108054772E-01 -0.148346432877E-01
 -0.152703582161E-01 -0.157182457088E-01 -0.161786061087E-01 -0.166517445583E-01 -0.171379708864E-01
 -0.176375994765E-01 -0.181509491150E-01 -0.186783428192E-01 -0.192201076419E-01 -0.197765744525E-01
 -0.203480776914E-01 -0.209349550977E-01 -0.215375474070E-01 -0.221561980175E-01 -0.227912526231E-01
 -0.234430588101E-01 -0.241119656169E-01 -0.247983230526E-01 -0.255024815725E-01 -0.262247915088E-01
 -0.269656024528E-01 -0.277252625853E-01 -0.285041179535E-01 -0.293025116905E-01 -0.301207831737E-01
 -0.309592671196E-01 -0.318182926106E-01 -0.326981820511E-01 -0.335992500477E-01 -0.345218022106E-01
 -0.354661338721E-01 -0.364325287168E-01 -0.374212573209E-01 -0.384325755943E-01 -0.394667231220E-01
 -0.405239213997E-01 -0.416043719591E-01 -0.427082543769E-01 -0.438357241640E-01 -0.449869105281E-01
 -0.461619140064E-01 -0.473608039613E-01 -0.485836159354E-01 -0.498303488598E-01 -0.511009621109E-01
 -0.523953724100E-01 -0.537134505620E-01 -0.550550180267E-01 -0.564198433194E-01 -0.578076382362E-01
 -0.592180538988E-01 -0.606506766168E-01 -0.621050235630E-01 -0.635805382586E-01 -0.650765858678E-01
 -0.665924482980E-01 -0.681273191068E-01 -0.696802982143E-01 -0.712503864224E-01 -0.728364797440E-01
 -0.744373635440E-01 -0.760517064976E-01 -0.776780543726E-01 -0.793148236425E-01 -0.809602949418E-01
 -0.826126063733E-01 -0.842697466840E-01 -0.859295483230E-01 -0.875896804045E-01 -0.892476415938E-01
 -0.909007529444E-01 -0.925461507145E-01 -0.941807791933E-01 -0.958013835752E-01 -0.974045029214E-01
 -0.989864632537E-01 -0.100543370830E+00 -0.102071105657E+00 -0.103565315296E+00 -0.105021409039E+00
 -0.106434552506E+00 -0.107799662766E+00 -0.109111404047E+00 -0.110364184131E+00 -0.111552151542E+00
 -0.112669193614E+00 -0.113708935573E+00 -0.114664740731E+00 -0.115529711940E+00 -0.116296694425E+00
 -0.116958280154E+00 -0.117506813882E+00 -0.117934401040E+00 -0.118232917620E+00 -0.118394022241E+00
 -0.118409170567E+00 -0.118269632259E+00 -0.117966510657E+00 -0.117490765370E+00 -0.116833237983E+00
 -0.115984681064E+00 -0.114935790672E+00 -0.113677242552E+00 -0.112199732210E+00 -0.110494019044E+00
 -0.108550974693E+00 -0.106361635783E+00 -0.103917261180E+00 -0.101209393894E+00 -0.982299277260E-01
 -0.949711787103E-01 -0.914259614144E-01 -0.875876700725E-01 -0.834503645205E-01 -0.790088608364E-01
 -0.742588265410E-01 -0.691968801541E-01 -0.638206948336E-01 -0.581291057521E-01 -0.521222207867E-01
 -0.458015340052E-01 -0.391700413380E-01 -0.322323577174E-01 -0.249948348561E-01 -0.174656787192E-01
 -0.965506563082E-02 -0.157525585246E-02  0.675929661051E-02  0.153318392682E-01  0.241232227705E-01
  0.331118101663E-01  0.422733950195E-01  0.515811295861E-01  0.610054643217E-01  0.705141001939E-01
  0.800719556348E-01  0.896411504535E-01  0.991810095540E-01  0.108648089756E+00  0.117996233271E+00
  0.127176651330E+00  0.136138041092E+00  0.144826738214E+00  0.153186906690E+00  0.161160766820E+00
  0.168688861781E+00  0.175710363122E+00  0.182163415504E+00  0.187985520868E+00  0.193113961997E+00
  0.197486264935E+00  0.201040699224E+00  0.203716814321E+00  0.205456010017E+00  0.206202138095E+00
  0.205902131937E+00  0.204506660184E+00  0.201970799942E+00  0.198254724363E+00  0.193324398710E+00
  0.187152278273E+00  0.179718000710E+00  0.171009064593E+00  0.161021485110E+00  0.149760417131E+00
  0.137240735099E+00  0.123487558653E+00  0.108536712442E+00  0.924351084498E-01  0.752410392838E-01
  0.570243713216E-01  0.378666273347E-01  0.178609490210E-01 -0.288806950461E-02 -0.242646861404E-01
 -0.461424627430E-01 -0.683848753349E-01 -0.908460931693E-01 -0.113371931789E+00 -0.135800968163E+00
 -0.157965772432E+00 -0.179694166150E+00 -0.200810389008E+00 -0.221136091627E+00 -0.240491206496E+00
 -0.258694946643E+00 -0.275567291126E+00 -0.290931146666E+00 -0.304614968102E+00 -0.316455361309E+00
 -0.326299334702E+00 -0.334006172536E+00 -0.339449059913E+00 -0.342516568603E+00 -0.343114037449E+00
 -0.341164824784E+00 -0.336611384558E+00 -0.329416115115E+00 -0.319561941099E+00 -0.307052606859E+00
 -0.291912676933E+00 -0.274187253648E+00 -0.253941430998E+00 -0.231259509906E+00 -0.206244003148E+00
 -0.179014459597E+00 -0.149706137600E+00 -0.118468556908E+00 -0.854639571596E-01 -0.508656894761E-01
 -0.148565653459E-01  0.223728148000E-01  0.606257333731E-01  0.997010096278E-01  0.139394619513E+00
  0.179501266442E+00  0.219815889165E+00  0.260135094255E+00  0.300258501589E+00  0.339989993612E+00
  0.379138859682E+00  0.417520831523E+00  0.454959006947E+00  0.491284663200E+00  0.526337963332E+00
  0.559968560624E+00  0.592036106301E+00  0.622410664422E+00  0.650973035472E+00  0.677614988745E+00
  0.702239402568E+00  0.724760315027E+00  0.745102893772E+00  0.763203342709E+00  0.779008773815E+00
  0.792477078300E+00  0.803576833142E+00  0.812287271950E+00  0.818598336890E+00  0.822510811678E+00
  0.824036519992E+00  0.823198566868E+00  0.820031586022E+00  0.814581967487E+00  0.806908032107E+00
  0.797080130035E+00  0.785180639432E+00  0.771303843825E+00  0.755555665695E+00  0.738053229998E+00
  0.718924230948E+00  0.698306074238E+00  0.676344773723E+00  0.653193591678E+00  0.629011430799E+00
  0.603961016083E+00  0.578206883258E+00  0.551913352807E+00  0.525242448722E+00  0.498351962961E+00
  0.471393714586E+00  0.444512084697E+00  0.417842874923E+00  0.391512508219E+00  0.365637560919E+00
  0.340324587703E+00  0.315670179027E+00  0.291761175434E+00  0.268674956809E+00  0.246479728198E+00
  0.225234737592E+00  0.204990383917E+00
 pseudo wavefunction
  0.619853192312E-04  0.639222052657E-04  0.659196141397E-04  0.679794370405E-04  0.701036242503E-04
  0.722941869926E-04  0.745531993366E-04  0.768828001612E-04  0.792851951796E-04  0.817626590283E-04
  0.843175374204E-04  0.869522493665E-04  0.896692894655E-04  0.924712302661E-04  0.953607247029E-04
  0.983405086079E-04  0.101413403301E-03  0.104582318262E-03  0.107850253883E-03  0.111220304312E-03
  0.114695660383E-03  0.118279612631E-03  0.121975554418E-03  0.125786985135E-03  0.129717513523E-03
  0.133770861086E-03  0.137950865616E-03  0.142261484828E-03  0.146706800102E-03  0.151291020355E-03
  0.156018486020E-03  0.160893673157E-03  0.165921197694E-03  0.171105819795E-03  0.176452448364E-03
  0.181966145700E-03  0.187652132285E-03  0.193515791726E-03  0.199562675858E-03  0.205798509995E-03
  0.212229198352E-03  0.218860829637E-03  0.225699682817E-03  0.232752233058E-03  0.240025157860E-03
  0.247525343379E-03  0.255259890946E-03  0.263236123792E-03  0.271461593978E-03  0.279944089552E-03
  0.288691641917E-03  0.297712533438E-03  0.307015305284E-03  0.316608765513E-03  0.326501997417E-03
  0.336704368114E-03  0.347225537426E-03  0.358075467016E-03  0.369264429829E-03  0.380803019813E-03
  0.392702161951E-03  0.404973122605E-03  0.417627520184E-03  0.430677336144E-03  0.444134926334E-03
  0.458013032692E-03  0.472324795312E-03  0.487083764884E-03  0.502303915525E-03  0.517999658011E-03
  0.534185853420E-03  0.550877827204E-03  0.568091383699E-03  0.585842821089E-03  0.604148946842E-03
  0.623027093616E-03  0.642495135677E-03  0.662571505822E-03  0.683275212830E-03  0.704625859461E-03
  0.726643661018E-03  0.749349464488E-03  0.772764768279E-03  0.796911742580E-03  0.821813250346E-03
  0.847492868956E-03  0.873974912528E-03  0.901284454946E-03  0.929447353603E-03  0.958490273882E-03
  0.988440714404E-03  0.101932703307E-02  0.105117847391E-02  0.108402519477E-02  0.111789829588E-02
  0.115282984929E-02  0.118885292924E-02  0.122600164350E-02  0.126431116562E-02  0.130381776830E-02
  0.134455885768E-02  0.138657300880E-02  0.142990000209E-02  0.147458086110E-02  0.152065789128E-02
  0.156817472007E-02  0.161717633825E-02  0.166770914248E-02  0.171982097929E-02  0.177356119035E-02
  0.182898065923E-02  0.188613185958E-02  0.194506890482E-02  0.200584759938E-02  0.206852549156E-02
  0.213316192805E-02  0.219981811010E-02  0.226855715151E-02  0.233944413843E-02  0.241254619095E-02
  0.248793252672E-02  0.256567452648E-02  0.264584580173E-02  0.272852226440E-02  0.281378219878E-02
  0.290170633568E-02  0.299237792894E-02  0.308588283424E-02  0.318230959051E-02  0.328174950376E-02
  0.338429673362E-02  0.349004838257E-02  0.359910458792E-02  0.371156861673E-02  0.382754696365E-02
  0.394714945190E-02  0.407048933728E-02  0.419768341559E-02  0.432885213332E-02  0.446411970181E-02
  0.460361421505E-02  0.474746777110E-02  0.489581659736E-02  0.504880117976E-02  0.520656639602E-02
  0.536926165300E-02  0.553704102852E-02  0.571006341746E-02  0.588849268260E-02  0.607249781005E-02
  0.626225306971E-02  0.645793818064E-02  0.665973848174E-02  0.686784510771E-02  0.708245517059E-02
  0.730377194703E-02  0.753200507139E-02  0.776737073503E-02  0.801009189177E-02  0.826039846990E-02
  0.851852759084E-02  0.878472379476E-02  0.905923927329E-02  0.934233410954E-02  0.963427652585E-02
  0.993534313925E-02  0.102458192251E-01  0.105659989889E-01  0.108961858473E-01  0.112366927172E-01
  0.115878423147E-01  0.119499674634E-01  0.123234114123E-01  0.127085281641E-01  0.131056828142E-01
  0.135152518999E-01  0.139376237616E-01  0.143731989148E-01  0.148223904345E-01  0.152856243526E-01
  0.157633400664E-01  0.162559907623E-01  0.167640438521E-01  0.172879814235E-01  0.178283007058E-01
  0.183855145502E-01  0.189601519264E-01  0.195527584354E-01  0.201638968384E-01  0.207941476046E-01
  0.214441094757E-01  0.221144000505E-01  0.228056563877E-01  0.235185356300E-01  0.242537156488E-01
  0.250118957105E-01  0.257937971657E-01  0.266001641616E-01  0.274317643795E-01  0.282893897966E-01
  0.291738574756E-01  0.300860103806E-01  0.310267182219E-01  0.319968783317E-01  0.329974165689E-01
  0.340292882583E-01  0.350934791622E-01  0.361910064882E-01  0.373229199331E-01  0.384903027661E-01
  0.396942729515E-01  0.409359843146E-01  0.422166277503E-01  0.435374324794E-01  0.448996673525E-01
  0.463046422053E-01  0.477537092666E-01  0.492482646234E-01  0.507897497443E-01  0.523796530651E-01
  0.540195116402E-01  0.557109128623E-01  0.574554962553E-01  0.592549553434E-01  0.611110396015E-01
  0.630255564906E-01  0.650003735847E-01  0.670374207922E-01  0.691386926796E-01  0.713062509020E-01
  0.735422267478E-01  0.758488238042E-01  0.782283207507E-01  0.806830742890E-01  0.832155222177E-01
  0.858281866607E-01  0.885236774589E-01  0.913046957370E-01  0.941740376541E-01  0.971345983529E-01
  0.100189376118E+00  0.103341476757E+00  0.106594118222E+00  0.109950635483E+00  0.113414485669E+00
  0.116989253501E+00  0.120678657026E+00  0.124486553677E+00  0.128416946682E+00  0.132473991832E+00
  0.136662004645E+00  0.140985467939E+00  0.145449039838E+00  0.150057562248E+00  0.154816069810E+00
  0.159729799367E+00  0.164804199973E+00  0.170044943460E+00  0.175457935593E+00  0.181049327835E+00
  0.186825529750E+00  0.192793222045E+00  0.198959370286E+00  0.205331239289E+00  0.211916408180E+00
  0.218722786140E+00  0.225758628801E+00  0.233032555275E+00  0.240553565774E+00  0.248331059753E+00
  0.256374854501E+00  0.264695204062E+00  0.273302818343E+00  0.282208882234E+00  0.291425074498E+00
  0.300963586169E+00  0.310837138087E+00  0.321058997175E+00  0.331642990926E+00  0.342603519508E+00
  0.353955564747E+00  0.365714695127E+00  0.377897065780E+00  0.390519412262E+00  0.403599036702E+00
  0.417153784657E+00  0.431202010775E+00  0.445762530999E+00  0.460854558758E+00  0.476497622174E+00
  0.492711458853E+00  0.509515884405E+00  0.526930630240E+00  0.544975145633E+00  0.563668358412E+00
  0.583028387921E+00  0.603072203182E+00  0.623815218417E+00  0.645270817291E+00  0.667449796421E+00
  0.690359717948E+00  0.714004160167E+00  0.738381854644E+00  0.763485697662E+00  0.789301623615E+00
  0.815807327943E+00  0.842970827622E+00  0.870748848169E+00  0.899085027763E+00  0.927907931570E+00
  0.957128872955E+00  0.986639543149E+00  0.101630945748E+01  0.104598323461E+01  0.107547773605E+01
  0.110457910605E+01  0.113303976867E+01  0.116057545763E+01  0.118686237768E+01  0.121153462290E+01
  0.123418200698E+01  0.125434849494E+01  0.127153146141E+01  0.128518203989E+01  0.129470686573E+01
  0.129947155278E+01  0.129880627607E+01  0.129201385559E+01  0.127838074522E+01  0.125719131877E+01
  0.122774580378E+01  0.118938213505E+01  0.114150187273E+01  0.108362408834E+01  0.101558691866E+01
  0.937426922893E+00  0.849273270483E+00  0.000000000000E+00  0.000000000000E+00  0.000000000000E+00
  0.000000000000E+00  0.000000000000E+00  0.000000000000E+00  0.000000000000E+00  0.000000000000E+00
  0.000000000000E+00  0.000000000000E+00  0.000000000000E+00  0.000000000000E+00  0.000000000000E+00
  0.000000000000E+00  0.000000000000E+00  0.000000000000E+00  0.000000000000E+00  0.000000000000E+00
  0.000000000000E+00  0.000000000000E+00  0.000000000000E+00  0.000000000000E+00  0.000000000000E+00
  0.000000000000E+00  0.000000000000E+00  0.000000000000E+00  0.000000000000E+00  0.000000000000E+00
  0.000000000000E+00  0.000000000000E+00
 ae wavefunction
 -0.179367393590E-02 -0.184855770897E-02 -0.190511659083E-02 -0.196340144307E-02 -0.202346465551E-02
 -0.208536019103E-02 -0.214914363186E-02 -0.221487222693E-02 -0.228260494075E-02 -0.235240250353E-02
 -0.242432746265E-02 -0.249844423561E-02 -0.257481916445E-02 -0.265352057148E-02 -0.273461881674E-02
 -0.281818635682E-02 -0.290429780538E-02 -0.299302999517E-02 -0.308446204180E-02 -0.317867540911E-02
 -0.327575397629E-02 -0.337578410670E-02 -0.347885471855E-02 -0.358505735731E-02 -0.369448627003E-02
 -0.380723848152E-02 -0.392341387242E-02 -0.404311525928E-02 -0.416644847658E-02 -0.429352246079E-02
 -0.442444933642E-02 -0.455934450427E-02 -0.469832673164E-02 -0.484151824479E-02 -0.498904482351E-02
 -0.514103589787E-02 -0.529762464726E-02 -0.545894810151E-02 -0.562514724444E-02 -0.579636711957E-02
 -0.597275693811E-02 -0.615447018933E-02 -0.634166475313E-02 -0.653450301498E-02 -0.673315198315E-02
 -0.693778340825E-02 -0.714857390502E-02 -0.736570507651E-02 -0.758936364037E-02 -0.781974155750E-02
 -0.805703616284E-02 -0.830145029834E-02 -0.855319244807E-02 -0.881247687535E-02 -0.907952376193E-02
 -0.935455934905E-02 -0.963781608038E-02 -0.992953274671E-02 -0.102299546323E-01 -0.105393336626E-01
 -0.108579285536E-01 -0.111860049626E-01 -0.115238356391E-01 -0.118717005780E-01 -0.122298871724E-01
 -0.125986903673E-01 -0.129784128138E-01 -0.133693650228E-01 -0.137718655187E-01 -0.141862409928E-01
 -0.146128264547E-01 -0.150519653842E-01 -0.155040098795E-01 -0.159693208049E-01 -0.164482679352E-01
 -0.169412300970E-01 -0.174485953070E-01 -0.179707609050E-01 -0.185081336839E-01 -0.190611300122E-01
 -0.196301759520E-01 -0.202157073692E-01 -0.208181700363E-01 -0.214380197263E-01 -0.220757222977E-01
 -0.227317537677E-01 -0.234066003754E-01 -0.241007586308E-01 -0.248147353503E-01 -0.255490476774E-01
 -0.263042230859E-01 -0.270807993650E-01 -0.278793245857E-01 -0.287003570440E-01 -0.295444651822E-01
 -0.304122274851E-01 -0.313042323480E-01 -0.322210779164E-01 -0.331633718939E-01 -0.341317313163E-01
 -0.351267822887E-01 -0.361491596843E-01 -0.371995068005E-01 -0.382784749702E-01 -0.393867231256E-01
 -0.405249173091E-01 -0.416937301308E-01 -0.428938401661E-01 -0.441259312909E-01 -0.453906919503E-01
 -0.466888143563E-01 -0.480209936090E-01 -0.493879267384E-01 -0.507903116600E-01 -0.522288460401E-01
 -0.537042260648E-01 -0.552171451068E-01 -0.567682922849E-01 -0.583583509080E-01 -0.599879968001E-01
 -0.616578964957E-01 -0.633687053021E-01 -0.651210652190E-01 -0.669156027081E-01 -0.687529263054E-01
 -0.706336240678E-01 -0.725582608450E-01 -0.745273753684E-01 -0.765414771487E-01 -0.786010431708E-01
 -0.807065143794E-01 -0.828582919435E-01 -0.850567332906E-01 -0.873021479006E-01 -0.895947928498E-01
 -0.919348680929E-01 -0.943225114751E-01 -0.967577934622E-01 -0.992407115783E-01 -0.101771184542E+00
 -0.104349046091E+00 -0.106974038480E+00 -0.109645805657E+00 -0.112363886084E+00 -0.115127705222E+00
 -0.117936567647E+00 -0.120789648809E+00 -0.123685986412E+00 -0.126624471420E+00 -0.129603838684E+00
 -0.132622657172E+00 -0.135679319830E+00 -0.138772033037E+00 -0.141898805692E+00 -0.145057437908E+00
 -0.148245509340E+00 -0.151460367146E+00 -0.154699113596E+00 -0.157958593344E+00 -0.161235380385E+00
 -0.164525764721E+00 -0.167825738758E+00 -0.171130983473E+00 -0.174436854387E+00 -0.177738367390E+00
 -0.181030184463E+00 -0.184306599361E+00 -0.187561523315E+00 -0.190788470828E+00 -0.193980545646E+00
 -0.197130426991E+00 -0.200230356157E+00 -0.203272123575E+00 -0.206247056472E+00 -0.209146007246E+00
 -0.211959342711E+00 -0.214676934351E+00 -0.217288149777E+00 -0.219781845533E+00 -0.222146361487E+00
 -0.224369516975E+00 -0.226438608962E+00 -0.228340412434E+00 -0.230061183279E+00 -0.231586663943E+00
 -0.232902092129E+00 -0.233992212845E+00 -0.234841294127E+00 -0.235433146747E+00 -0.235751148267E+00
 -0.235778271784E+00 -0.235497119735E+00 -0.234889963137E+00 -0.233938786645E+00 -0.232625339813E+00
 -0.230931194953E+00 -0.228837811973E+00 -0.226326610580E+00 -0.223379050222E+00 -0.219976718130E+00
 -0.216101425794E+00 -0.211735314193E+00 -0.206860968060E+00 -0.201461539412E+00 -0.195520880567E+00
 -0.189023686753E+00 -0.181955648410E+00 -0.174303613172E+00 -0.166055757446E+00 -0.157201767402E+00
 -0.147733029104E+00 -0.137642827348E+00 -0.126926552695E+00 -0.115581915987E+00 -0.103609169531E+00
 -0.910113338871E-01 -0.777944290799E-01 -0.639677087783E-01 -0.495438958027E-01 -0.345394170716E-01
 -0.189746358751E-01 -0.287407915693E-02  0.137333426828E-01  0.308141260436E-01  0.483299770400E-01
  0.662376296156E-01  0.844886813041E-01  0.103029449053E+00  0.121800847659E+00  0.140738293782E+00
  0.159771639210E+00  0.178825138056E+00  0.197817453563E+00  0.216661711165E+00  0.235265604893E+00
  0.253531564183E+00  0.271356987329E+00  0.288634546438E+00  0.305252567089E+00  0.321095484548E+00
  0.336044377494E+00  0.349977580031E+00  0.362771372657E+00  0.374300752709E+00  0.384440284243E+00
  0.393065026425E+00  0.400051538423E+00  0.405278957662E+00  0.408630147148E+00  0.409992906503E+00
  0.409261240170E+00  0.406336675136E+00  0.401129619230E+00  0.393560749709E+00  0.383562420445E+00
  0.371080074433E+00  0.356073646803E+00  0.338518941847E+00  0.318408965927E+00  0.295755196543E+00
  0.270588766359E+00  0.242961539773E+00  0.212947058713E+00  0.180641333970E+00  0.146163458588E+00
  0.109656020645E+00  0.712852941243E-01  0.312411881119E-01 -0.102630643217E-01 -0.529914961413E-01
 -0.966862953901E-01 -0.141069015717E+00 -0.185842130501E+00 -0.230690941567E+00 -0.275285819068E+00
 -0.319284681756E+00 -0.362335537822E+00 -0.404078851902E+00 -0.444149577283E+00 -0.482178963345E+00
 -0.517796642814E+00 -0.550633718136E+00 -0.580327220358E+00 -0.606525498700E+00 -0.628893585769E+00
 -0.647117874593E+00 -0.660910058995E+00 -0.670010599549E+00 -0.674191932986E+00 -0.673261491077E+00
 -0.667064482412E+00 -0.655486339581E+00 -0.638454729415E+00 -0.615941047633E+00 -0.587961355135E+00
 -0.554576747672E+00 -0.515893179190E+00 -0.472060777140E+00 -0.423272699475E+00 -0.369763589062E+00
 -0.311807683484E+00 -0.249716638106E+00 -0.183837118871E+00 -0.114548217962E+00 -0.422587418006E-01
  0.325955844809E-01  0.109554956364E+00  0.188138338991E+00  0.267846296332E+00  0.348163775491E+00
  0.428562825007E+00  0.508505229585E+00  0.587445047988E+00  0.664831044096E+00  0.740109008494E+00
  0.812723970853E+00  0.882122316211E+00  0.947753822720E+00  0.100907365027E+01  0.106554431606E+01
  0.111663769957E+01  0.116183712249E+01  0.120063954991E+01  0.123255795778E+01  0.125712391306E+01
  0.127389041544E+01  0.128243506095E+01  0.128236360176E+01  0.127331399467E+01  0.125496104548E+01
  0.122702175795E+01  0.118926148366E+01  0.114150093618E+01  0.108362408834E+01  0.101558691866E+01
  0.937426922893E+00  0.849273270483E+00  0.000000000000E+00  0.000000000000E+00  0.000000000000E+00
  0.000000000000E+00  0.000000000000E+00  0.000000000000E+00  0.000000000000E+00  0.000000000000E+00
  0.000000000000E+00  0.000000000000E+00  0.000000000000E+00  0.000000000000E+00  0.000000000000E+00
  0.000000000000E+00  0.000000000000E+00  0.000000000000E+00  0.000000000000E+00  0.000000000000E+00
  0.000000000000E+00  0.000000000000E+00  0.000000000000E+00  0.000000000000E+00  0.000000000000E+00
  0.000000000000E+00  0.000000000000E+00  0.000000000000E+00  0.000000000000E+00  0.000000000000E+00
  0.000000000000E+00  0.000000000000E+00
 pseudo wavefunction
  0.205502549422E-08  0.218546083635E-08  0.232417509208E-08  0.247169373563E-08  0.262857559379E-08
  0.279541496291E-08  0.297284386013E-08  0.316153441761E-08  0.336220142868E-08  0.357560505561E-08
  0.380255370920E-08  0.404390711127E-08  0.430057955133E-08  0.457354335016E-08  0.486383254309E-08
  0.517254679713E-08  0.550085557666E-08  0.585000257365E-08  0.622131041890E-08  0.661618569245E-08
  0.703612425196E-08  0.748271689924E-08  0.795765540653E-08  0.846273892524E-08  0.899988080141E-08
  0.957111582386E-08  0.101786079323E-07  0.108246584146E-07  0.115117146249E-07  0.122423792540E-07
  0.130194201893E-07  0.138457809999E-07  0.147245920873E-07  0.156591825439E-07  0.166530927644E-07
  0.177100878573E-07  0.188341719078E-07  0.200296031458E-07  0.213009100773E-07  0.226529086388E-07
  0.240907204410E-07  0.256197921705E-07  0.272459162227E-07  0.289752526445E-07  0.308143524695E-07
  0.327701825348E-07  0.348501518722E-07  0.370621397752E-07  0.394145256474E-07  0.419162207446E-07
  0.445767019325E-07  0.474060475871E-07  0.504149757728E-07  0.536148848447E-07  0.570178966277E-07
  0.606369023357E-07  0.644856114064E-07  0.685786034345E-07  0.729313834024E-07  0.775604404156E-07
  0.824833101660E-07  0.877186413611E-07  0.932862663680E-07  0.992072763421E-07  0.105504101124E-06
  0.112200594209E-06  0.119322123107E-06  0.126895665439E-06  0.134949911134E-06  0.143515371113E-06
  0.152624492867E-06  0.162311783375E-06  0.172613939826E-06  0.183569988629E-06  0.195221433256E-06
  0.207612411463E-06  0.220789862493E-06  0.234803704890E-06  0.249707025600E-06  0.265556281074E-06
  0.282411511134E-06  0.300336566417E-06  0.319399350253E-06  0.339672075893E-06  0.361231540069E-06
  0.384159413914E-06  0.408542552345E-06  0.434473323089E-06  0.462049956588E-06  0.491376918115E-06
  0.522565303507E-06  0.555733260020E-06  0.591006433889E-06  0.628518446308E-06  0.668411399602E-06
  0.710836415549E-06  0.755954207853E-06  0.803935690961E-06  0.854962627519E-06  0.909228316930E-06
  0.966938327604E-06  0.102831127570E-05  0.109357965329E-05  0.116299070907E-05  0.123680738501E-05
  0.131530931244E-05  0.139879387131E-05  0.148757731677E-05  0.158199597722E-05  0.168240752835E-05
  0.178919234813E-05  0.190275495777E-05  0.202352555411E-05  0.215196163933E-05  0.228854975409E-05
  0.243380732060E-05  0.258828460282E-05  0.275256679093E-05  0.292727621821E-05  0.311307471861E-05
  0.331066613390E-05  0.352079898005E-05  0.374426928283E-05  0.398192359330E-05  0.423466219487E-05
  0.450344251379E-05  0.478928274615E-05  0.509326571517E-05  0.541654297323E-05  0.576033916434E-05
  0.612595666347E-05  0.651478051045E-05  0.692828365690E-05  0.736803254638E-05  0.783569304863E-05
  0.833303677053E-05  0.886194776766E-05  0.942442968185E-05  0.100226133319E-04  0.106587647860E-04
  0.113352939466E-04  0.120547636806E-04  0.128198995281E-04  0.136336000290E-04  0.144989477034E-04
  0.154192207306E-04  0.163979053684E-04  0.174387091614E-04  0.185455749871E-04  0.197226959949E-04
  0.209745314920E-04  0.223058238389E-04  0.237216164172E-04  0.252272727375E-04  0.268284967617E-04
  0.285313545139E-04  0.303422970647E-04  0.322681849740E-04  0.343163142861E-04  0.364944441746E-04
  0.388108263436E-04  0.412742362948E-04  0.438940065806E-04  0.466800621678E-04  0.496429580479E-04
  0.527939192353E-04  0.561448833049E-04  0.597085456320E-04  0.634984075047E-04  0.675288272916E-04
  0.718150748604E-04  0.763733894509E-04  0.812210412262E-04  0.863763967315E-04  0.918589885126E-04
  0.976895891559E-04  0.103890290033E-03  0.110484585047E-03  0.117497459701E-03  0.124955485825E-03
  0.132886922325E-03  0.141321822329E-03  0.150292147149E-03  0.159831887481E-03  0.169977192317E-03
  0.180766506040E-03  0.192240714248E-03  0.204443298841E-03  0.217420502977E-03  0.231221506512E-03
  0.245898612608E-03  0.261507446202E-03  0.278107165114E-03  0.295760684580E-03  0.314534916081E-03
  0.334501021370E-03  0.355734682677E-03  0.378316390121E-03  0.402331747422E-03  0.427871797098E-03
  0.455033366379E-03  0.483919435169E-03  0.514639527469E-03  0.547310127760E-03  0.582055123955E-03
  0.619006278602E-03  0.658303730183E-03  0.700096526407E-03  0.744543191581E-03  0.791812330236E-03
  0.842083269337E-03  0.895546741578E-03  0.952405612397E-03  0.101287565353E-02  0.107718636614E-02
  0.114558185666E-02  0.121832176885E-02  0.129568227562E-02  0.137795713461E-02  0.146545881148E-02
  0.155851967561E-02  0.165749327257E-02  0.176275567867E-02  0.187470694281E-02  0.199377262135E-02
  0.212040541213E-02  0.225508689414E-02  0.239832937982E-02  0.255067788738E-02  0.271271224105E-02
  0.288504930788E-02  0.306834537990E-02  0.326329871164E-02  0.347065222300E-02  0.369119637897E-02
  0.392577225758E-02  0.417527481917E-02  0.444065639034E-02  0.472293037708E-02  0.502317522279E-02
  0.534253862775E-02  0.568224204799E-02  0.604358549256E-02  0.642795263996E-02  0.683681629557E-02
  0.727174421381E-02  0.773440531033E-02  0.822657629154E-02  0.875014873057E-02  0.930713662125E-02
  0.989968444363E-02  0.105300757773E-01  0.112007425019E-01  0.119142746252E-01  0.126734307863E-01
  0.134811494792E-01  0.143405610513E-01  0.152550005307E-01  0.162280213433E-01  0.172634099841E-01
  0.183652017110E-01  0.195376973363E-01  0.207854811940E-01  0.221134403700E-01  0.235267852850E-01
  0.250310717275E-01  0.266322244427E-01  0.283365623861E-01  0.301508257614E-01  0.320822049681E-01
  0.341383715897E-01  0.363275115657E-01  0.386583606906E-01  0.411402425966E-01  0.437831093800E-01
  0.465975850339E-01  0.495950118605E-01  0.527875000321E-01  0.561879804736E-01  0.598102612370E-01
  0.636690875299E-01  0.677802055507E-01  0.721604302665E-01  0.768277172451E-01  0.818012386213E-01
  0.871014632327E-01  0.927502409063E-01  0.987708908044E-01  0.105188293648E+00  0.112028987524E+00
  0.119321266849E+00  0.127095283879E+00  0.135383151971E+00  0.144219049544E+00  0.153639323383E+00
  0.163682589605E+00  0.174389830177E+00  0.185804482396E+00  0.197972518181E+00  0.210942509396E+00
  0.224765674655E+00  0.239495902238E+00  0.255189742797E+00  0.271906364478E+00  0.289707461901E+00
  0.308657109227E+00  0.328821546131E+00  0.350268884150E+00  0.373068719394E+00  0.397291636210E+00
  0.423008585074E+00  0.450290116826E+00  0.479205454541E+00  0.509821383926E+00  0.542200943381E+00
  0.576401895953E+00  0.612474967611E+00  0.650461839865E+00  0.690392890102E+00  0.732284680416E+00
  0.776137205522E+00  0.821930922968E+00  0.869623604412E+00  0.919147065487E+00  0.970403853571E+00
  0.102326399733E+01  0.107756194839E+01  0.113309387267E+01  0.118961547487E+01  0.124684056116E+01
  0.130444055930E+01  0.136204521655E+01  0.141924467826E+01  0.147562515907E+01  0.153102943930E+01
  0.158544860909E+01  0.163888730049E+01  0.000000000000E+00  0.000000000000E+00  0.000000000000E+00
  0.000000000000E+00  0.000000000000E+00  0.000000000000E+00  0.000000000000E+00  0.000000000000E+00
  0.000000000000E+00  0.000000000000E+00  0.000000000000E+00  0.000000000000E+00  0.000000000000E+00
  0.000000000000E+00  0.000000000000E+00  0.000000000000E+00  0.000000000000E+00  0.000000000000E+00
  0.000000000000E+00  0.000000000000E+00  0.000000000000E+00  0.000000000000E+00  0.000000000000E+00
  0.000000000000E+00  0.000000000000E+00  0.000000000000E+00  0.000000000000E+00  0.000000000000E+00
  0.000000000000E+00  0.000000000000E+00
 ae wavefunction
  0.171227725508E-05  0.181010783323E-05  0.191316638101E-05  0.202175350353E-05  0.213618628016E-05
  0.225679923416E-05  0.238394535370E-05  0.251799717516E-05  0.265934792504E-05  0.280841273174E-05
  0.296562990371E-05  0.313146228633E-05  0.330639869294E-05  0.349095542423E-05  0.368567787398E-05
  0.389114222929E-05  0.410795727252E-05  0.433676628776E-05  0.457824908123E-05  0.483312412087E-05
  0.510215080224E-05  0.538613185059E-05  0.568591586398E-05  0.600240000924E-05  0.633653287787E-05
  0.668931751286E-05  0.706181461648E-05  0.745514594971E-05  0.787049793553E-05  0.830912547823E-05
  0.877235601188E-05  0.926159379226E-05  0.977832444642E-05  0.103241197966E-04  0.109006429745E-04
  0.115096538436E-04  0.121530147489E-04  0.128326966146E-04  0.135507854084E-04  0.143094889986E-04
  0.151111444250E-04  0.159582256107E-04  0.168533515404E-04  0.177992949351E-04  0.187989914527E-04
  0.198555494465E-04  0.209722603169E-04  0.221526094904E-04  0.234002880668E-04  0.247192051730E-04
  0.261135010681E-04  0.275875610449E-04  0.291460301763E-04  0.307938289583E-04  0.325361699034E-04
  0.343785751437E-04  0.363268951024E-04  0.383873283018E-04  0.405664423730E-04  0.428711963433E-04
  0.453089642762E-04  0.478875603464E-04  0.506152654368E-04  0.535008553483E-04  0.565536307197E-04
  0.597834487610E-04  0.632007569060E-04  0.668166285047E-04  0.706428006702E-04  0.746917144148E-04
  0.789765572072E-04  0.835113080984E-04  0.883107855648E-04  0.933906982328E-04  0.987676986534E-04
  0.104459440304E-03  0.110484638018E-03  0.116863132024E-03  0.123615955830E-03  0.130765408153E-03
  0.138335129146E-03  0.146350181176E-03  0.154837134390E-03  0.163824157378E-03  0.173341113212E-03
  0.183419661158E-03  0.194093364410E-03  0.205397804174E-03  0.217370700465E-03  0.230052039993E-03
  0.243484211560E-03  0.257712149349E-03  0.272783484598E-03  0.288748706079E-03  0.305661329901E-03
  0.323578079138E-03  0.342559073830E-03  0.362668031919E-03  0.383972481707E-03  0.406543986483E-03
  0.430458381944E-03  0.455796027115E-03  0.482642069475E-03  0.511086725037E-03  0.541225574175E-03
  0.573159874000E-03  0.606996888153E-03  0.642850234901E-03  0.680840254456E-03  0.721094396496E-03
  0.763747628884E-03  0.808942868627E-03  0.856831436167E-03  0.907573534120E-03  0.961338751628E-03
  0.101830659552E-02  0.107866704956E-02  0.114262116298E-02  0.121038166970E-02  0.128217363960E-02
  0.135823516308E-02  0.143881807058E-02  0.152418868823E-02  0.161462863135E-02  0.171043563717E-02
  0.181192443832E-02  0.191942767857E-02  0.203329687250E-02  0.215390341052E-02  0.228163961076E-02
  0.241691981948E-02  0.256018156134E-02  0.271188674108E-02  0.287252289807E-02  0.304260451484E-02
  0.322267438119E-02  0.341330501474E-02  0.361510013919E-02  0.382869622108E-02  0.405476406583E-02
  0.429401047373E-02  0.454717995597E-02  0.481505651120E-02  0.509846546197E-02  0.539827535105E-02
  0.571539989629E-02  0.605080000313E-02  0.640548583276E-02  0.678051892393E-02  0.717701436535E-02
  0.759614301550E-02  0.803913376558E-02  0.850727584076E-02  0.900192113391E-02  0.952448656539E-02
  0.100764564609E-01  0.106593849389E-01  0.112748982973E-01  0.119246973888E-01  0.126105599708E-01
  0.133343430173E-01  0.140979849759E-01  0.149035079514E-01  0.157530197985E-01  0.166487160993E-01
  0.175928820040E-01  0.185878939059E-01  0.196362209244E-01  0.207404261622E-01  0.219031677036E-01
  0.231271993154E-01  0.244153708110E-01  0.257706280316E-01  0.271960123993E-01  0.286946599880E-01
  0.302698000603E-01  0.319247530082E-01  0.336629276358E-01  0.354878177169E-01  0.374029977551E-01
  0.394121178704E-01  0.415188977318E-01  0.437271194517E-01  0.460406193511E-01  0.484632785047E-01
  0.509990119656E-01  0.536517565696E-01  0.564254572142E-01  0.593240515023E-01  0.623514526410E-01
  0.655115304813E-01  0.688080905833E-01  0.722448511923E-01  0.758254180077E-01  0.795532566333E-01
  0.834316625938E-01  0.874637288109E-01  0.916523104355E-01  0.959999869393E-01  0.100509021380E+00
  0.105181316762E+00  0.110018369435E+00  0.115021219474E+00  0.120190398028E+00  0.125525871616E+00
  0.131026983401E+00  0.136692391482E+00  0.142520004292E+00  0.148506913214E+00  0.154649322577E+00
  0.160942477228E+00  0.167380587961E+00  0.173956755086E+00  0.180662890550E+00  0.187489639031E+00
  0.194426298550E+00  0.201460741196E+00  0.208579334634E+00  0.215766865163E+00  0.223006463100E+00
  0.230279531333E+00  0.237565677851E+00  0.244842652988E+00  0.252086292034E+00  0.259270463722E+00
  0.266367025001E+00  0.273345782534E+00  0.280174461523E+00  0.286818682935E+00  0.293241950901E+00
  0.299405652867E+00  0.305269075941E+00  0.310789443445E+00  0.315921975915E+00  0.320619980513E+00
  0.324834972018E+00  0.328516827331E+00  0.331613974037E+00  0.334073612346E+00  0.335841969217E+00
  0.336864583571E+00  0.337086622076E+00  0.336453225580E+00  0.334909886479E+00  0.332402857196E+00
  0.328879589486E+00  0.324289203775E+00  0.318582987206E+00  0.311714918624E+00  0.303642218321E+00
  0.294325919910E+00  0.283731461282E+00  0.271829291042E+00  0.258595486228E+00  0.244012376472E+00
  0.228069168999E+00  0.210762568101E+00  0.192097381888E+00  0.172087108301E+00  0.150754491544E+00
  0.128132039384E+00  0.104262491160E+00  0.791992259066E-01  0.530065999375E-01  0.257602033079E-01
 -0.245297492498E-02 -0.315344822048E-01 -0.613744478943E-01 -0.918517479579E-01 -0.122834299491E+00
 -0.154179498062E+00 -0.185734813346E+00 -0.217338557957E+00 -0.248820833898E+00 -0.280004631200E+00
 -0.310706998430E+00 -0.340740137572E+00 -0.369912244642E+00 -0.398027995429E+00 -0.424888809346E+00
 -0.450293340356E+00 -0.474038791026E+00 -0.495923328608E+00 -0.515749207235E+00 -0.533325811339E+00
 -0.548472112654E+00 -0.561018549261E+00 -0.570808579202E+00 -0.577700111877E+00 -0.581566889679E+00
 -0.582299797929E+00 -0.579808037833E+00 -0.574020090266E+00 -0.564884413365E+00 -0.552369841656E+00
 -0.536465678075E+00 -0.517181489882E+00 -0.494546630959E+00 -0.468609520026E+00 -0.439436707428E+00
 -0.407111764021E+00 -0.371734024939E+00 -0.333417220095E+00 -0.292288020798E+00 -0.248484530021E+00
 -0.202154740171E+00 -0.153454980340E+00 -0.102548371428E+00 -0.496033053398E-01  0.520803745829E-02
  0.617111197054E-01  0.119730416832E+00  0.179090713517E+00  0.239618317317E+00  0.301142180674E+00
  0.363494923276E+00  0.426513750319E+00  0.490041264109E+00  0.553926170545E+00  0.618023884900E+00
  0.682197043605E+00  0.746315929266E+00  0.810258814688E+00  0.873912228190E+00  0.937171139764E+00
  0.999939064893E+00  0.106212808651E+01  0.112365880342E+01  0.118446022820E+01  0.124446967668E+01
  0.130363270732E+01  0.136190318075E+01  0.141924350961E+01  0.147562515907E+01  0.153102943930E+01
  0.158544860909E+01  0.163888730049E+01  0.000000000000E+00  0.000000000000E+00  0.000000000000E+00
  0.000000000000E+00  0.000000000000E+00  0.000000000000E+00  0.000000000000E+00  0.000000000000E+00
  0.000000000000E+00  0.000000000000E+00  0.000000000000E+00  0.000000000000E+00  0.000000000000E+00
  0.000000000000E+00  0.000000000000E+00  0.000000000000E+00  0.000000000000E+00  0.000000000000E+00
  0.000000000000E+00  0.000000000000E+00  0.000000000000E+00  0.000000000000E+00  0.000000000000E+00
  0.000000000000E+00  0.000000000000E+00  0.000000000000E+00  0.000000000000E+00  0.000000000000E+00
  0.000000000000E+00  0.000000000000E+00
 pseudo wavefunction
  0.440114894632E-08  0.468049602479E-08  0.497757365297E-08  0.529350721366E-08  0.562949351925E-08
  0.598680534551E-08  0.636679625306E-08  0.677090571489E-08  0.720066456938E-08  0.765770081934E-08
  0.814374579921E-08  0.866064073363E-08  0.921034371236E-08  0.979493710784E-08  0.104166354636E-07
  0.110777938834E-07  0.117809169526E-07  0.125286682263E-07  0.133238803189E-07  0.141695656350E-07
  0.150689277806E-07  0.160253736992E-07  0.170425265777E-07  0.181242395717E-07  0.192746104019E-07
  0.204979968772E-07  0.217990334028E-07  0.231826485358E-07  0.246540836558E-07  0.262189128204E-07
  0.278830638799E-07  0.296528409339E-07  0.315349482120E-07  0.335365154704E-07  0.356651250012E-07
  0.379288403548E-07  0.403362368867E-07  0.428964342421E-07  0.456191309029E-07  0.485146409269E-07
  0.515939330199E-07  0.548686720865E-07  0.583512634194E-07  0.620548996922E-07  0.659936109362E-07
  0.701823176881E-07  0.746368875120E-07  0.793741951085E-07  0.844121862390E-07  0.897699457073E-07
  0.954677696563E-07  0.101527242454E-06  0.107971318456E-06  0.114824408967E-06  0.122112474707E-06
  0.129863124162E-06  0.138105718166E-06  0.146871481126E-06  0.156193619304E-06  0.166107446613E-06
  0.176650518388E-06  0.187862773650E-06  0.199786686411E-06  0.212467426563E-06  0.225953030995E-06
  0.240294585566E-06  0.255546418622E-06  0.271766306808E-06  0.289015693930E-06  0.307359923719E-06
  0.326868487363E-06  0.347615286751E-06  0.369678914429E-06  0.393142951318E-06  0.418096283338E-06
  0.444633438119E-06  0.472854943092E-06  0.502867706301E-06  0.534785421392E-06  0.568728998302E-06
  0.604827021289E-06  0.643216236029E-06  0.684042067634E-06  0.727459171548E-06  0.773632019407E-06
  0.822735522085E-06  0.874955692289E-06  0.930490349205E-06  0.989549867872E-06  0.105235797612E-05
  0.111915260208E-05  0.119018677551E-05  0.126572958631E-05  0.134606720387E-05  0.143150396113E-05
  0.152236350747E-05  0.161899003471E-05  0.172174958099E-05  0.183103141736E-05  0.194724952244E-05
  0.207084415060E-05  0.220228349975E-05  0.234206548491E-05  0.249071962442E-05  0.264880904585E-05
  0.281693261918E-05  0.299572722545E-05  0.318587016932E-05  0.338808174486E-05  0.360312796409E-05
  0.383182345878E-05  0.407503456638E-05  0.433368261184E-05  0.460874739770E-05  0.490127091577E-05
  0.521236129432E-05  0.554319699580E-05  0.589503128106E-05  0.626919695684E-05  0.666711142465E-05
  0.709028205003E-05  0.754031187266E-05  0.801890567890E-05  0.852787645966E-05  0.906915227828E-05
  0.964478357424E-05  0.102569509304E-04  0.109079733333E-04  0.116003169578E-04  0.123366045090E-04
  0.131196251575E-04  0.139523451046E-04  0.148379188192E-04  0.157797009864E-04  0.167812592158E-04
  0.178463875554E-04  0.189791208641E-04  0.201837500954E-04  0.214648385520E-04  0.228272391717E-04
  0.242761129102E-04  0.258169482909E-04  0.274555821956E-04  0.291982219738E-04  0.310514689570E-04
  0.330223434632E-04  0.351183113900E-04  0.373473124949E-04  0.397177904700E-04  0.422387249260E-04
  0.449196654059E-04  0.477707675570E-04  0.508028315993E-04  0.540273432339E-04  0.574565171491E-04
  0.611033432865E-04  0.649816360433E-04  0.691060865974E-04  0.734923185529E-04  0.781569471166E-04
  0.831176420300E-04  0.883931944950E-04  0.940035883460E-04  0.999700757391E-04  0.106315257643E-03
  0.113063169439E-03  0.120239371951E-03  0.127871048251E-03  0.135987106613E-03  0.144618289987E-03
  0.153797292434E-03  0.163558882934E-03  0.173940037060E-03  0.184980077003E-03  0.196720820473E-03
  0.209206739057E-03  0.222485126617E-03  0.236606278371E-03  0.251623681335E-03  0.267594216841E-03
  0.284578375907E-03  0.302640488263E-03  0.321848965898E-03  0.342276562063E-03  0.364000646690E-03
  0.387103499277E-03  0.411672620351E-03  0.437801062673E-03  0.465587783440E-03  0.495138018821E-03
  0.526563682234E-03  0.559983787863E-03  0.595524901021E-03  0.633321617058E-03  0.673517070611E-03
  0.716263477121E-03  0.761722708663E-03  0.810066906249E-03  0.861479130912E-03  0.916154056028E-03
  0.974298703472E-03  0.103613322639E-02  0.110189174150E-02  0.117182321412E-02  0.124619239911E-02
  0.132528084146E-02  0.140938794005E-02  0.149883207877E-02  0.159395182914E-02  0.169510722887E-02
  0.180268114130E-02  0.191708070072E-02  0.203873884886E-02  0.216811596852E-02  0.230570162017E-02
  0.245201638823E-02  0.260761384365E-02  0.277308263030E-02  0.294904868275E-02  0.313617758370E-02
  0.333517706985E-02  0.354679969535E-02  0.377184566268E-02  0.401116583140E-02  0.426566491579E-02
  0.453630488311E-02  0.482410856482E-02  0.513016349406E-02  0.545562598314E-02  0.580172545601E-02
  0.616976905127E-02  0.656114651219E-02  0.697733538144E-02  0.741990651902E-02  0.789052996288E-02
  0.839098115323E-02  0.892314754214E-02  0.948903561179E-02  0.100907783257E-01  0.107306430387E-01
  0.114110398928E-01  0.121345307272E-01  0.129038385334E-01  0.137218574858E-01  0.145916635817E-01
  0.155165259256E-01  0.164999186937E-01  0.175455338163E-01  0.186572944200E-01  0.198393690674E-01
  0.210961868411E-01  0.224324533134E-01  0.238531674500E-01  0.253636394940E-01  0.269695098781E-01
  0.286767692166E-01  0.304917794252E-01  0.324212960211E-01  0.344724916522E-01  0.366529809077E-01
  0.389708464565E-01  0.414346665615E-01  0.440535440141E-01  0.468371365267E-01  0.497956886187E-01
  0.529400650228E-01  0.562817856286E-01  0.598330619693E-01  0.636068352443E-01  0.676168158495E-01
  0.718775243685E-01  0.764043339498E-01  0.812135139617E-01  0.863222747813E-01  0.917488135236E-01
  0.975123604648E-01  0.103633225845E+00  0.110132846658E+00  0.117033832944E+00  0.124360012993E+00
  0.132136476723E+00  0.140389616375E+00  0.149147163456E+00  0.158438220665E+00  0.168293287309E+00
  0.178744276405E+00  0.189824521351E+00  0.201568769668E+00  0.214013160875E+00  0.227195185033E+00
  0.241153617959E+00  0.255928428394E+00  0.271560651694E+00  0.288092223754E+00  0.305565767900E+00
  0.324024326435E+00  0.343511027315E+00  0.364068675137E+00  0.385739254193E+00  0.408563329786E+00
  0.432579332425E+00  0.457822707764E+00  0.484324913482E+00  0.512112242581E+00  0.541204451034E+00
  0.571613166348E+00  0.603340052647E+00  0.636374707414E+00  0.670692265429E+00  0.706250686811E+00
  0.742987708963E+00  0.780817446894E+00  0.819626633493E+00  0.859270501298E+00  0.899568321001E+00
  0.940298629882E+00  0.981194206535E+00  0.102193687736E+01  0.106215227612E+01  0.110140472116E+01
  0.113919242584E+01  0.117494331696E+01  0.120801180213E+01  0.123767689987E+01  0.126314222277E+01
  0.128353838042E+01  0.129792844070E+01  0.130531714633E+01  0.130466461964E+01  0.129490528965E+01
  0.127497272578E+01  0.124383094630E+01  0.120051256632E+01  0.114418913652E+01  0.107440315016E+01
  0.990965715744E+00  0.893865670662E+00  0.000000000000E+00  0.000000000000E+00  0.000000000000E+00
  0.000000000000E+00  0.000000000000E+00  0.000000000000E+00  0.000000000000E+00  0.000000000000E+00
  0.000000000000E+00  0.000000000000E+00  0.000000000000E+00  0.000000000000E+00  0.000000000000E+00
  0.000000000000E+00  0.000000000000E+00  0.000000000000E+00  0.000000000000E+00  0.000000000000E+00
  0.000000000000E+00  0.000000000000E+00  0.000000000000E+00  0.000000000000E+00  0.000000000000E+00
  0.000000000000E+00  0.000000000000E+00  0.000000000000E+00  0.000000000000E+00  0.000000000000E+00
  0.000000000000E+00  0.000000000000E+00
 ae wavefunction
  0.221588227647E-05  0.234248634019E-05  0.247585599751E-05  0.261638026637E-05  0.276446948433E-05
  0.292055656336E-05  0.308509831116E-05  0.325857683311E-05  0.344150101000E-05  0.363440806624E-05
  0.383786522392E-05  0.405247145880E-05  0.427885935220E-05  0.451769705726E-05  0.476969037701E-05
  0.503558496463E-05  0.531616865536E-05  0.561227393374E-05  0.592478054821E-05  0.625461828001E-05
  0.660276987551E-05  0.697027415476E-05  0.735822930267E-05  0.776779635775E-05  0.820020290815E-05
  0.865674700856E-05  0.913880133163E-05  0.964781756710E-05  0.101853310850E-04  0.107529658781E-04
  0.113524398013E-04  0.119855701260E-04  0.126542794273E-04  0.133606018273E-04  0.141066896129E-04
  0.148948202538E-04  0.157274038427E-04  0.166069909863E-04  0.175362811714E-04  0.185181316385E-04
  0.195555667914E-04  0.206517881766E-04  0.218101850678E-04  0.230343456915E-04  0.243280691337E-04
  0.256953779687E-04  0.271405316551E-04  0.286680407445E-04  0.302826819536E-04  0.319895141522E-04
  0.337938953223E-04  0.357015005484E-04  0.377183411010E-04  0.398507846804E-04  0.421055768909E-04
  0.444898640208E-04  0.470112172059E-04  0.496776580630E-04  0.524976858792E-04  0.554803064542E-04
  0.586350626933E-04  0.619720670574E-04  0.655020359823E-04  0.692363263860E-04  0.731869743882E-04
  0.773667363764E-04  0.817891325573E-04  0.864684931460E-04  0.914200073441E-04  0.966597752813E-04
  0.102204863089E-03  0.108073361296E-03  0.114284446749E-03  0.120858448248E-03  0.127816916142E-03
  0.135182696095E-03  0.142980007288E-03  0.151234525293E-03  0.159973469919E-03  0.169225698306E-03
  0.179021803562E-03  0.189394219303E-03  0.200377330383E-03  0.212007590224E-03  0.224323645097E-03
  0.237366465753E-03  0.251179486838E-03  0.265808754532E-03  0.281303082871E-03  0.297714219249E-03
  0.315097019627E-03  0.333509633976E-03  0.353013702546E-03  0.373674563550E-03  0.395561472903E-03
  0.418747836676E-03  0.443311456980E-03  0.469334791991E-03  0.496905230895E-03  0.526115384572E-03
  0.557063392844E-03  0.589853249183E-03  0.624595143809E-03  0.661405826140E-03  0.700408987608E-03
  0.741735665907E-03  0.785524671764E-03  0.831923039407E-03  0.881086501894E-03  0.933179992601E-03
  0.988378174122E-03  0.104686599596E-02  0.110883928242E-02  0.117450535208E-02  0.124408367051E-02
  0.131780653757E-02  0.139591981110E-02  0.147868366853E-02  0.156637340819E-02  0.165928029199E-02
  0.175771243132E-02  0.186199571809E-02  0.197247480256E-02  0.208951412014E-02  0.221349896886E-02
  0.234483663968E-02  0.248395760147E-02  0.263131674274E-02  0.278739467206E-02  0.295269907919E-02
  0.312776615889E-02  0.331316209928E-02  0.350948463670E-02  0.371736467887E-02  0.393746799803E-02
  0.417049699583E-02  0.441719254126E-02  0.467833588322E-02  0.495475063876E-02  0.524730485789E-02
  0.555691316596E-02  0.588453898373E-02  0.623119682544E-02  0.659795467463E-02  0.698593643694E-02
  0.739632446892E-02  0.783036218097E-02  0.828935671244E-02  0.877468167568E-02  0.928777996565E-02
  0.983016663044E-02  0.104034317975E-01  0.110092436491E-01  0.116493514397E-01  0.123255885459E-01
  0.130398755411E-01  0.137942232799E-01  0.145907359831E-01  0.154316143058E-01  0.163191583734E-01
  0.172557707671E-01  0.182439594368E-01  0.192863405205E-01  0.203856410421E-01  0.215447014621E-01
  0.227664780478E-01  0.240540450290E-01  0.254105965039E-01  0.268394480506E-01  0.283440380022E-01
  0.299279283356E-01  0.315948051209E-01  0.333484784752E-01  0.351928819571E-01  0.371320713376E-01
  0.391702226731E-01  0.413116296065E-01  0.435606998114E-01  0.459219504944E-01  0.484000028596E-01
  0.509995754391E-01  0.537254761823E-01  0.565825931956E-01  0.595758840148E-01  0.627103632900E-01
  0.659910887541E-01  0.694231453455E-01  0.730116273448E-01  0.767616183869E-01  0.806781692024E-01
  0.847662729411E-01  0.890308379267E-01  0.934766576926E-01  0.981083781471E-01  0.102930461719E+00
  0.107947148337E+00  0.113162413101E+00  0.118579920509E+00  0.124202975118E+00  0.130034468520E+00
  0.136076822537E+00  0.142331928549E+00  0.148801082896E+00  0.155484918319E+00  0.162383331420E+00
  0.169495406183E+00  0.176819333599E+00  0.184352327507E+00  0.192090536805E+00  0.200028954223E+00
  0.208161321944E+00  0.216480034389E+00  0.224976038580E+00  0.233638732579E+00  0.242455862583E+00
  0.251413419356E+00  0.260495534777E+00  0.269684379400E+00  0.278960061986E+00  0.288300532057E+00
  0.297681486548E+00  0.307076281622E+00  0.316455850615E+00  0.325788628984E+00  0.335040486916E+00
  0.344174670175E+00  0.353151749768E+00  0.361929581248E+00  0.370463275094E+00  0.378705180471E+00
  0.386604885800E+00  0.394109240601E+00  0.401162403868E+00  0.407705924526E+00  0.413678859136E+00
  0.419017931036E+00  0.423657733470E+00  0.427530977489E+00  0.430568783842E+00  0.432701017408E+00
  0.433856662852E+00  0.433964240959E+00  0.432952265843E+00  0.430749743534E+00  0.427286712278E+00
  0.422494824302E+00  0.416307968139E+00  0.408662929915E+00  0.399500091422E+00  0.388764162264E+00
  0.376404942769E+00  0.362378113815E+00  0.346646048937E+00  0.329178643366E+00  0.309954153702E+00
  0.288960040962E+00  0.266193808685E+00  0.241663826677E+00  0.215390129835E+00  0.187405180402E+00
  0.157754580998E+00  0.126497724902E+00  0.937083695280E-01  0.594751187249E-01  0.239017997207E-01
 -0.128922790352E-01 -0.507722022446E-01 -0.895874670725E-01 -0.129172160527E+00 -0.169345309790E+00
 -0.209911423593E+00 -0.250661246057E+00 -0.291372743451E+00 -0.331812330283E+00 -0.371736301628E+00
 -0.410892366748E+00 -0.449021092358E+00 -0.485857026108E+00 -0.521129377031E+00 -0.554562437429E+00
 -0.585876340355E+00 -0.614788928556E+00 -0.641019085695E+00 -0.664290999904E+00 -0.684338335326E+00
 -0.700907660851E+00 -0.713761158622E+00 -0.722678946318E+00 -0.727461277713E+00 -0.727930714000E+00
 -0.723934236179E+00 -0.715345214044E+00 -0.702065140122E+00 -0.684025058116E+00 -0.661186648359E+00
 -0.633542963871E+00 -0.601118835872E+00 -0.563970982390E+00 -0.522187862245E+00 -0.475889320422E+00
 -0.425226071347E+00 -0.370379065168E+00 -0.311558779965E+00 -0.249004478891E+00 -0.182983467470E+00
 -0.113790380456E+00 -0.417465233904E-01  0.328007122638E-01  0.109478346495E+00  0.187888211914E+00
  0.267607255244E+00  0.348187740447E+00  0.429157360682E+00  0.510019272178E+00  0.590252072367E+00
  0.669309752044E+00  0.746621667037E+00  0.821592586113E+00  0.893602889746E+00  0.962009009931E+00
  0.102614421734E+01  0.108531987671E+01  0.113882730404E+01  0.118594037092E+01  0.122591901519E+01
  0.125801383262E+01  0.128147194756E+01  0.129554438702E+01  0.129949521079E+01  0.129261267361E+01
  0.127422269989E+01  0.124370493348E+01  0.120051157453E+01  0.114418913652E+01  0.107440315016E+01
  0.990965715744E+00  0.893865670662E+00  0.000000000000E+00  0.000000000000E+00  0.000000000000E+00
  0.000000000000E+00  0.000000000000E+00  0.000000000000E+00  0.000000000000E+00  0.000000000000E+00
  0.000000000000E+00  0.000000000000E+00  0.000000000000E+00  0.000000000000E+00  0.000000000000E+00
  0.000000000000E+00  0.000000000000E+00  0.000000000000E+00  0.000000000000E+00  0.000000000000E+00
  0.000000000000E+00  0.000000000000E+00  0.000000000000E+00  0.000000000000E+00  0.000000000000E+00
  0.000000000000E+00  0.000000000000E+00  0.000000000000E+00  0.000000000000E+00  0.000000000000E+00
  0.000000000000E+00  0.000000000000E+00
 End of Dataset
